▁The 3.158203125
▁C 4.99609375
ans 8.65625
o 2.943359375
▁d 7.9453125
' 3.291015625
Ant 5.41796875
i 3.509765625
oca 7.125
▁was 3.1953125
▁written 6.1796875
▁by 0.978515625
▁Gregory 9.546875
▁Be 6.35546875
ch 5.4453125
ada 7.76953125
▁in 1.89453125
▁the 1.986328125
▁tw 5.1328125
elf 0.196533203125
th 0.00543212890625
- 3.755859375
century 0.034210205078125
. 0.83154296875
▁He 4.17578125
▁was 1.390625
▁a 0.666015625
▁soldier 6.375
▁but 6.15625
▁had 4.2734375
▁a 1.3037109375
▁good 4.33984375
▁education 1.9501953125
, 2.083984375
▁including 4.12109375
▁knowledge 2.94921875
▁of 0.03387451171875
▁Latin 1.5810546875
, 1.5029296875
▁yet 8.7734375
▁he 0.76123046875
▁chose 2.611328125
▁to 0.129150390625
▁write 0.21533203125
▁his 1.9345703125
▁account 5.07421875
▁in 0.50146484375
▁the 1.078125
▁vern 1.37890625
ac 0.00049591064453125
ular 0.0016832351684570312
, 2.01953125
▁in 2.841796875
▁his 3.498046875
▁mother 3.87890625
▁tongue 0.10211181640625
▁of 2.275390625
▁Occ 2.048828125
itan 0.09588623046875
▁French 7.234375
. 0.2261962890625
▁This 2.21484375
▁was 1.826171875
▁the 2.521484375
▁first 1.583984375
▁piece 4.66796875
▁of 0.061981201171875
▁vern 3.43359375
ac 0.00017547607421875
ular 0.0010652542114257812
▁history 3.83203125
▁in 1.75390625
▁French 4.375
, 1.4658203125
▁pred 4.48828125
ating 0.01010894775390625
▁the 1.0068359375
▁earliest 3.84375
▁Ang 6.12109375
lo 0.002899169921875
- 0.07440185546875
N 0.171630859375
orm 0.0001837015151977539
an 0.004749298095703125
▁texts 2.814453125
▁by 0.86474609375
▁two 3.337890625
▁dec 2.611328125
ades 0.0005521774291992188
, 2.388671875
▁and 0.298095703125
▁contin 12.6015625
ental 0.0926513671875
▁French 2.052734375
▁texts 2.10546875
▁by 0.1905517578125
▁a 1.6708984375
▁century 0.43115234375
. 0.3203125
▁It 2.13671875
▁celebr 8.5234375
ates 0.0014009475708007812
▁the 0.251220703125
▁cr 5.265625
us 0.007160186767578125
aders 2.32421875
' 1.5576171875
▁victory 1.2138671875
▁at 1.0224609375
▁Ant 1.0595703125
io 0.000560760498046875
ch 0.034759521484375
▁in 0.77783203125
▁ 0.11444091796875
1 0.0003399848937988281
0 0.045074462890625
9 0.0028629302978515625
8 0.1724853515625
, 0.9423828125
▁which 2.697265625
▁was 1.3916015625
▁of 3.8125
▁great 1.171875
▁significance 1.4189453125
▁as 3.61328125
▁it 0.7724609375
▁gave 4.546875
▁the 0.76611328125
▁cr 0.87060546875
us 7.76052474975586e-05
aders 0.1905517578125
▁a 1.314453125
▁fo 1.8828125
oth 6.9141387939453125e-06
old 0.00034308433532714844
▁into 4.59765625
▁the 0.481689453125
▁Holy 1.505859375
▁Land 0.01119232177734375
s 3.734375
▁and 2.087890625
▁they 5.328125
▁then 3.623046875
▁went 0.9619140625
▁on 0.027679443359375
▁to 0.01445770263671875
▁conquer 1.740234375
▁Jerusalem 0.0465087890625
. 0.51025390625
▁History 8.3125
▁writing 4.53125
▁in 1.5185546875
▁the 1.1591796875
▁Middle 1.9033203125
▁A 0.01427459716796875
ges 9.083747863769531e-05
▁was 0.4970703125
▁often 2.482421875
▁a 2.7265625
▁combination 3.64453125
▁of 0.004306793212890625
▁literature 5.3671875
▁and 0.259765625
▁history 1.59765625
, 0.55224609375
▁so 3.271484375
▁the 1.595703125
▁reli 10.1640625
ability 0.04888916015625
▁of 0.048797607421875
▁such 3.26171875
▁sources 2.962890625
▁is 0.9306640625
▁question 1.6591796875
able 0.015869140625
. 0.58642578125
▁The 2.166015625
▁C 1.25
ans 0.0032806396484375
o 0.00388336181640625
▁d 0.31298828125
' 0.0163116455078125
Ant 0.0093536376953125
i 0.0694580078125
oca 0.003509521484375
▁is 0.9013671875
▁described 5.98046875
▁as 0.259521484375
▁an 2.4140625
▁ep 1.1083984375
ic 0.006267547607421875
▁chron 4.81640625
icle 0.010833740234375
; 4.65625
▁although 4.453125
▁there 3.119140625
▁is 0.71630859375
▁und 7.24609375
ou 0.1151123046875
bt 0.004302978515625
edly 0.468017578125
▁some 1.3662109375
▁accuracy 6.16796875
▁in 0.94140625
▁his 3.42578125
▁account 0.8447265625
, 0.259765625
▁there 2.052734375
▁is 0.80908203125
▁a 2.271484375
▁propag 9.015625
and 0.744140625
ist 0.365478515625
▁element 0.94482421875
▁to 1.23828125
▁it 0.85009765625
▁also 4.5625
. 0.461181640625
<0x0A> 1.5556640625
The 1.306640625
▁C 1.4990234375
ans 0.015655517578125
o 0.006076812744140625
▁d 0.192138671875
' 0.01165771484375
Ant 0.005275726318359375
i 0.046356201171875
oca 0.0015411376953125
▁was 1.890625
▁written 0.6875
▁at 3.791015625
▁the 0.9140625
▁request 1.943359375
▁of 0.007091522216796875
▁the 1.3076171875
▁bishop 4.01953125
▁E 7.94921875
ust 3.537109375
orge 2.609375
, 2.330078125
▁and 2.1015625
▁was 1.9482421875
▁partly 6.0
▁a 2.24609375
▁comm 5.03515625
em 0.2239990234375
oration 0.0006175041198730469
▁for 3.71484375
▁Be 5.421875
ch 0.00104522705078125
ada 0.041534423828125
' 0.10601806640625
s 0.0002397298812866211
▁lord 6.06640625
, 0.72216796875
▁G 4.80859375
ou 4.97265625
ff 0.441650390625
ier 0.40478515625
▁of 2.8515625
▁Last 6.2734375
ours 0.042724609375
, 0.59814453125
▁who 0.32568359375
▁also 6.1015625
▁participated 3.271484375
▁in 0.01898193359375
▁the 0.0213623046875
▁con 3.33984375
quest 0.00023484230041503906
▁of 0.12298583984375
▁Ant 0.493408203125
io 0.0002818107604980469
ch 0.00036835670471191406
. 0.256103515625
▁Be 1.865234375
ch 0.0008845329284667969
ada 0.0009694099426269531
▁was 1.8505859375
▁also 2.939453125
▁ad 7.64453125
vised 1.14453125
▁to 0.8701171875
▁write 0.73583984375
▁this 2.654296875
▁account 1.8583984375
▁by 0.576171875
▁Ga 8.8984375
ub 3.95703125
ert 0.115234375
▁the 4.25390625
▁Norman 5.5390625
. 2.837890625
▁This 2.80078125
▁may 3.666015625
▁have 1.5263671875
▁influenced 3.7734375
▁the 0.9033203125
▁writing 3.759765625
▁as 2.302734375
▁Be 1.740234375
ch 0.0002548694610595703
ada 0.0024204254150390625
▁had 2.94140625
▁to 3.150390625
▁take 4.12109375
▁their 7.578125
▁views 3.224609375
▁into 0.1968994140625
▁consideration 0.88330078125
, 1.369140625
▁but 2.283203125
▁it 2.06640625
▁also 1.6279296875
▁gives 3.1640625
▁the 1.755859375
▁work 1.6953125
▁added 5.734375
▁authority 1.5859375
. 0.79638671875
▁His 4.69140625
▁account 1.8994140625
▁could 6.578125
▁not 2.623046875
▁sole 5.66015625
ly 0.0001455545425415039
▁have 2.791015625
▁been 0.11614990234375
▁his 3.22265625
▁opinions 6.06640625
▁or 3.525390625
▁per 5.96484375
ception 0.0026073455810546875
s 0.10711669921875
. 2.923828125
▁Be 2.615234375
ch 0.0007863044738769531
ada 0.0006103515625
▁was 1.6611328125
▁anxious 7.84765625
▁about 4.5390625
▁the 0.9150390625
▁use 5.94921875
▁of 0.12359619140625
▁the 1.7568359375
▁vern 1.8955078125
ac 0.0002772808074951172
ular 0.0001761913299560547
. 4.25
▁Despite 5.87109375
▁knowledge 8.140625
▁of 0.042449951171875
▁Latin 0.25244140625
, 0.3642578125
▁which 3.720703125
▁was 0.400634765625
▁considered 3.23046875
▁the 0.6640625
▁author 5.3515625
itative 0.021514892578125
▁language 0.1768798828125
, 1.0009765625
▁Be 2.224609375
ch 0.00018167495727539062
ada 0.0004322528839111328
▁chose 1.783203125
▁to 0.262451171875
▁write 0.1824951171875
▁in 0.357421875
▁Occ 0.497314453125
itan 0.0027828216552734375
▁' 7.77734375
so 3.037109375
▁that 0.2388916015625
▁the 1.154296875
▁popul 6.3359375
ace 0.0557861328125
▁might 1.8779296875
▁fully 6.8671875
▁compreh 2.9375
end 0.0009393692016601562
▁it 2.21484375
', 3.115234375
▁which 2.28125
▁was 2.20703125
▁the 3.322265625
▁same 4.23828125
▁reason 1.228515625
▁for 2.427734375
▁writing 1.3740234375
▁in 0.5654296875
▁popular 8.3515625
▁met 10.2265625
re 0.18408203125
. 0.82080078125
▁Thus 6.25
▁Be 2.458984375
ch 0.0002684593200683594
ada 0.0006194114685058594
▁is 3.4765625
▁concerned 3.57421875
▁with 0.6005859375
▁stress 11.09375
ing 0.007701873779296875
▁the 0.5634765625
▁truth 4.96484375
▁and 2.125
▁reli 3.892578125
ability 0.0033092498779296875
▁of 0.0295562744140625
▁his 0.2685546875
▁writing 3.763671875
. 1.078125
▁As 4.71875
▁an 3.712890625
▁ep 2.4765625
ic 0.004085540771484375
▁chron 0.9052734375
icle 0.007015228271484375
, 0.403564453125
▁many 6.5859375
▁literary 4.8359375
▁descri 7.87890625
ptions 0.00014328956604003906
▁and 1.4287109375
▁devices 5.15234375
▁have 3.494140625
▁been 0.06640625
▁employed 2.294921875
▁which 4.8984375
▁may 2.8515625
▁appear 5.625
▁to 1.1337890625
▁limit 8.375
▁the 0.484375
▁cred 3.099609375
ibility 0.00726318359375
▁of 0.1649169921875
▁the 0.5244140625
▁writing 3.474609375
. 0.59228515625
▁The 2.57421875
▁ch 7.4765625
ans 0.52734375
ons 0.0816650390625
▁de 0.0823974609375
▁jest 13.609375
▁that 7.16796875
▁were 2.16015625
▁common 4.1484375
▁in 0.7509765625
▁the 1.0302734375
▁Middle 1.4296875
▁A 0.006420135498046875
ges 2.396106719970703e-05
▁drew 8.5
▁on 0.72802734375
▁historical 4.3515625
▁events 0.9404296875
▁to 2.15625
▁highlight 5.25390625
▁social 3.919921875
▁and 1.490234375
▁political 0.65576171875
▁aspects 3.92578125
▁of 0.751953125
▁the 0.75634765625
▁day 3.55078125
. 0.67724609375
▁It 3.806640625
▁is 0.6806640625
▁clear 3.1171875
▁also 6.4140625
▁that 0.2059326171875
▁Be 0.62744140625
ch 0.0003345012664794922
ada 0.00089263916015625
▁produced 8.53125
▁propag 6.27734375
anda 0.0648193359375
▁for 1.408203125
▁the 0.65771484375
▁cr 1.3125
us 9.834766387939453e-05
ades 1.6533203125
, 1.091796875
▁to 3.73828125
▁encou 1.18359375
rage 3.0994415283203125e-05
▁participation 3.529296875
▁and 1.6904296875
▁support 2.259765625
▁for 1.875
▁it 4.94140625
. 0.3505859375
▁Yet 4.55859375
▁despite 2.779296875
▁all 2.998046875
▁these 1.5322265625
▁things 4.8203125
, 0.2061767578125
▁the 1.17578125
▁Occ 6.3203125
itan 0.00926971435546875
▁fragments 9.9375
▁of 1.556640625
▁the 0.340576171875
▁C 0.378173828125
ans 0.00240325927734375
o 0.0026416778564453125
▁d 0.11968994140625
' 0.004405975341796875
Ant 0.0031986236572265625
i 0.045135498046875
oca 0.0037078857421875
▁can 4.140625
▁still 1.2099609375
▁be 0.4248046875
▁considered 1.44140625
▁as 1.9013671875
▁history 3.48828125
▁as 3.30078125
▁there 2.8046875
▁is 0.59521484375
▁truth 5.5
▁in 0.806640625
▁his 2.60546875
▁words 4.05078125
▁and 1.76953125
▁they 2.453125
▁do 2.640625
▁give 2.84375
▁a 1.140625
▁description 4.57421875
▁of 0.0555419921875
▁a 4.2578125
▁famous 5.671875
▁incident 5.65234375
▁during 4.3359375
▁the 0.11285400390625
▁First 0.9951171875
▁Cr 0.0026111602783203125
us 5.447864532470703e-05
ade 0.03045654296875
. 0.139404296875
<0x0A> 0.40673828125
The 1.134765625
▁most 5.015625
▁obvious 3.484375
▁propag 2.29296875
anda 0.441650390625
▁in 2.009765625
▁the 0.3505859375
▁Occ 4.5625
itan 0.0010223388671875
▁fragments 0.453125
▁of 1.099609375
▁the 0.07659912109375
▁C 0.0243682861328125
ans 0.0008177757263183594
o 0.0010128021240234375
▁d 0.0283203125
' 0.006137847900390625
Ant 0.0013942718505859375
i 0.0158538818359375
oca 0.0006194114685058594
▁is 0.2626953125
▁that 2.232421875
▁for 3.87890625
▁the 0.154052734375
▁work 8.7734375
▁itself 1.58203125
. 0.296875
▁' 4.49609375
If 4.6015625
▁anyone 2.935546875
▁wishes 2.267578125
▁to 0.07769775390625
▁learn 3.10546875
▁a 4.80859375
▁song 4.8984375
, 1.498046875
▁I 2.599609375
▁think 5.17578125
▁he 1.697265625
▁is 3.794921875
▁very 3.607421875
▁fool 2.138671875
ish 0.00960540771484375
/ 5.17578125
▁if 4.05859375
▁he 0.2259521484375
▁fails 5.7265625
▁to 0.0447998046875
▁sing 4.27734375
▁this 2.15625
▁one 1.43359375
'. 1.9951171875
▁Although 4.3984375
▁this 1.16015625
▁quote 4.12890625
▁can 3.705078125
▁only 4.88671875
▁be 0.162353515625
▁found 0.8857421875
▁near 8.9609375
▁the 0.0250091552734375
▁end 0.5380859375
▁of 0.053466796875
▁the 0.08770751953125
▁extract 5.1640625
, 0.30029296875
▁it 0.53564453125
▁shows 2.828125
▁Be 2.427734375
ch 0.0004620552062988281
ada 0.00165557861328125
' 0.111083984375
s 0.0006971359252929688
▁concern 2.2734375
▁to 3.01953125
▁appeal 6.33984375
▁to 0.052886962890625
▁the 0.64501953125
▁audience 2.83984375
. 1.150390625
▁Although 4.77734375
▁it 2.51171875
▁is 0.734375
▁subt 7.05078125
le 0.167236328125
, 0.328125
▁as 3.986328125
▁it 1.5107421875
▁is 0.6484375
▁not 0.939453125
▁the 3.9609375
▁main 1.82421875
▁focus 1.7119140625
▁of 0.326904296875
▁the 0.25927734375
▁passage 2.720703125
, 0.087890625
▁it 0.5478515625
▁would 5.15625
▁influence 5.0390625
▁the 0.65576171875
▁audience 1.521484375
▁into 3.142578125
▁trust 7.8203125
ing 0.006595611572265625
▁in 3.701171875
▁the 0.58544921875
▁song 4.953125
. 1.0712890625
▁The 1.79296875
▁Occ 4.15625
itan 0.01015472412109375
▁fragments 0.399169921875
▁actually 7.27734375
▁begin 1.9287109375
▁with 0.25634765625
▁a 0.95703125
▁conversation 7.2265625
▁between 0.2447509765625
▁the 1.755859375
▁King 6.4375
▁of 0.2322998046875
▁Pers 8.1640625
ia 0.01776123046875
, 2.14453125
▁King 3.978515625
▁Ker 3.876953125
b 0.3583984375
og 0.348388671875
ha 1.3447265625
▁and 2.224609375
▁his 1.4677734375
▁' 6.140625
court 6.23046875
ly 3.30078125
▁interpreter 8.2265625
', 1.1689453125
▁Her 7.69921875
lu 6.3671875
in 0.0716552734375
. 0.8115234375
▁This 1.560546875
▁dialog 3.998046875
ue 0.005512237548828125
▁helps 5.328125
▁to 0.525390625
▁convey 4.890625
▁the 0.52734375
▁Tur 10.234375
ks 0.197021484375
▁response 10.8515625
▁to 0.07861328125
▁the 0.12213134765625
▁cr 0.85595703125
us 0.00011801719665527344
aders 0.333740234375
▁and 2.1484375
▁the 2.083984375
▁battle 5.16796875
▁at 2.552734375
▁Ant 0.06817626953125
io 0.0011081695556640625
ch 0.00042510032653808594
, 1.80859375
▁or 7.65625
▁at 0.93408203125
▁least 0.00655364990234375
▁the 1.4169921875
▁cr 2.71484375
us 0.0003077983856201172
aders 0.0841064453125
' 0.2381591796875
▁view 2.30078125
▁of 0.20654296875
▁what 3.95703125
▁the 1.259765625
▁Tur 0.1207275390625
ks 0.00011289119720458984
▁thought 1.8310546875
. 0.40625
▁It 2.091796875
▁then 5.2265625
▁moves 1.8056640625
▁on 0.55029296875
▁to 0.03900146484375
▁very 10.40625
▁detailed 2.2578125
▁descri 0.68505859375
ptions 0.00023806095123291016
▁of 0.0543212890625
▁the 0.23193359375
▁battle 1.24609375
▁and 1.9765625
▁the 0.75341796875
▁individual 7.390625
▁comb 6.75390625
ats 0.007564544677734375
. 1.1298828125
▁There 3.5859375
▁is 0.654296875
▁a 1.2802734375
▁clear 2.8125
▁propag 2.73828125
and 0.79248046875
ist 0.037506103515625
▁message 3.53515625
▁in 1.0966796875
▁the 1.009765625
▁lists 8.7578125
▁of 0.0513916015625
▁names 2.0234375
▁of 0.65625
▁the 0.70263671875
▁soldiers 3.515625
▁that 2.71484375
▁part 6.74609375
ook 0.305908203125
▁in 0.062347412109375
▁the 0.1204833984375
▁battle 0.53515625
. 0.9833984375
▁It 2.23046875
▁is 0.984375
▁only 5.4375
▁the 1.1865234375
▁highest 6.4453125
▁soldiers 5.71875
▁that 0.71533203125
▁are 0.23974609375
▁mentioned 1.052734375
, 0.67626953125
▁possibly 6.546875
▁those 3.818359375
▁that 1.0966796875
▁Be 1.6298828125
ch 0.0001552104949951172
ada 0.0013179779052734375
' 3.634765625
s 0.0005888938903808594
▁patron 3.197265625
▁had 3.265625
▁relations 5.5390625
▁with 0.07049560546875
, 1.3359375
▁and 1.48828125
▁they 2.95703125
▁are 0.335205078125
▁described 2.529296875
▁as 0.779296875
, 6.1015625
▁' 0.075927734375
a 4.0546875
▁courage 6.0
ous 0.00457000732421875
▁and 1.6806640625
▁bold 4.2109375
▁group 3.841796875
'. 1.1669921875
▁The 1.73046875
▁King 5.9609375
▁is 3.3046875
▁port 3.708984375
rayed 0.0009360313415527344
▁as 0.1268310546875
▁wor 7.21875
ried 0.03302001953125
▁and 1.6748046875
▁anxious 2.69921875
▁about 1.3564453125
▁the 0.32568359375
▁threat 5.81640625
▁of 0.61767578125
▁the 0.183837890625
▁Christian 3.9296875
▁army 0.80859375
, 0.80615234375
▁so 4.515625
▁he 1.6572265625
▁see 4.2734375
ks 0.00018286705017089844
▁for 4.77734375
▁cons 6.69921875
olation 0.12225341796875
▁in 2.236328125
▁Her 3.16796875
lu 0.007549285888671875
in 0.0016040802001953125
. 0.93701171875
▁Her 2.171875
lu 0.006519317626953125
in 0.00027632713317871094
, 2.8515625
▁however 1.6552734375
, 0.0212860107421875
▁far 9.7421875
▁from 0.04461669921875
▁rel 5.53515625
ieving 0.046905517578125
▁his 1.9462890625
▁fear 1.6533203125
s 0.11614990234375
, 0.1573486328125
▁ex 4.65625
ac 0.2337646484375
erb 0.0008234977722167969
ates 0.01242828369140625
▁them 0.1744384765625
, 1.5615234375
▁by 2.5234375
▁encourag 4.76171875
ing 0.0015172958374023438
▁Ker 4.19921875
b 0.004058837890625
og 0.006511688232421875
ha 0.0017023086547851562
▁to 0.228515625
▁fle 5.51171875
e 0.0001513957977294922
, 2.07421875
▁' 2.125
No 6.05859375
ble 4.0703125
▁king 2.330078125
, 0.2568359375
▁why 4.734375
▁not 3.703125
▁turn 4.3984375
▁and 2.15234375
▁take 4.6171875
▁flight 0.642578125
?" 7.63671875
▁The 2.3203125
▁strength 7.890625
▁of 0.31005859375
▁the 0.4248046875
▁Christian 1.3232421875
▁army 0.1634521484375
▁is 0.3525390625
▁emphas 2.005859375
ised 0.1385498046875
▁to 3.45703125
▁celebr 12.390625
ate 0.0009717941284179688
▁their 1.109375
▁victory 0.423828125
▁and 1.896484375
▁increase 5.171875
▁their 1.9228515625
▁prest 3.345703125
ige 6.747245788574219e-05
. 0.328125
▁It 3.107421875
▁would 3.724609375
▁also 1.6484375
▁encou 1.8642578125
rage 1.704692840576172e-05
▁others 2.041015625
▁to 0.060211181640625
▁join 0.89453125
▁the 0.464599609375
▁cr 0.32666015625
us 2.5987625122070312e-05
aders 3.369140625
▁as 3.09375
▁they 0.71875
▁would 1.494140625
▁be 1.234375
▁im 4.43359375
pressed 0.0213775634765625
▁by 0.34130859375
▁the 0.9306640625
▁easy 9.6328125
▁defeat 3.99609375
▁of 0.176025390625
▁the 0.351806640625
▁Tur 0.65234375
ks 0.00048065185546875
▁and 2.515625
▁by 4.68359375
▁the 0.29931640625
▁fear 6.24609375
▁the 3.408203125
▁cr 2.72265625
us 8.606910705566406e-05
aders 0.0295257568359375
▁inspired 2.046875
. 0.7470703125
▁As 4.5703125
▁the 1.4404296875
▁kn 6.28515625
ights 0.234130859375
▁were 1.9990234375
▁dep 5.61328125
icted 0.047210693359375
▁as 0.12255859375
▁hero 2.736328125
es 0.64013671875
, 0.5859375
▁others 4.36328125
▁would 0.1737060546875
▁want 1.103515625
▁some 9.703125
▁of 0.490478515625
▁that 1.3173828125
▁glory 0.77783203125
▁too 4.16796875
, 1.99609375
▁and 0.84130859375
▁in 5.24609375
▁this 2.41796875
▁account 4.90234375
▁they 1.595703125
▁would 1.8076171875
▁have 2.138671875
▁role 8.96875
▁models 0.045196533203125
▁to 0.76171875
▁follow 0.96533203125
. 0.2247314453125
▁There 4.15625
▁are 1.6982421875
▁detailed 6.94921875
▁descri 0.2474365234375
ptions 7.140636444091797e-05
▁of 0.07977294921875
▁individual 3.76171875
▁batt 1.7294921875
les 0.0009937286376953125
, 0.9111328125
▁comm 8.90625
emor 1.2734375
ating 0.0802001953125
▁certain 4.4921875
▁soldiers 2.169921875
, 1.5693359375
▁such 1.671875
▁as 0.00356292724609375
▁Duke 6.04296875
▁God 1.984375
f 0.239501953125
rey 0.062347412109375
▁and 2.119140625
▁Walter 5.7578125
▁the 1.287109375
▁German 8.3828125
. 0.6357421875
▁Although 4.46484375
▁ep 8.765625
ic 0.1510009765625
▁chron 1.2041015625
icles 0.1275634765625
▁did 3.3203125
▁contain 2.357421875
▁stock 10.9140625
▁mot 6.2578125
ifs 0.0191802978515625
, 0.54296875
▁such 1.4052734375
▁as 0.02435302734375
▁a 3.416015625
▁set 7.2109375
▁description 4.37890625
▁of 0.151123046875
▁single 7.109375
▁comb 1.197265625
ats 0.0005664825439453125
, 0.2249755859375
▁this 2.41015625
▁could 3.7734375
▁be 0.8759765625
▁seen 1.7587890625
▁as 0.095947265625
▁propag 0.97119140625
anda 0.045379638671875
▁as 1.2197265625
▁Be 3.3046875
ch 0.00025153160095214844
ada 0.0004706382751464844
▁chose 4.140625
▁to 0.39208984375
▁highlight 2.630859375
▁certain 1.2451171875
▁men 4.81640625
▁above 4.546875
▁others 0.1927490234375
. 0.4755859375
▁Thus 4.97265625
▁there 3.6953125
▁is 0.46630859375
▁clear 5.015625
▁propag 0.54931640625
anda 0.1207275390625
▁in 0.9267578125
▁the 0.36865234375
▁listing 7.85546875
▁of 0.04608154296875
▁names 0.919921875
▁and 1.3779296875
▁the 1.267578125
▁bold 10.1640625
▁and 2.724609375
▁val 4.68359375
i 0.023284912109375
ant 0.0003769397735595703
▁descri 1.16796875
ptions 0.00018143653869628906
▁of 0.370849609375
▁the 0.6025390625
▁soldiers 1.9423828125
. 0.43896484375
<0x0A> 0.406494140625
The 1.279296875
▁choice 6.27734375
▁of 0.06072998046875
▁words 3.048828125
▁used 2.00390625
▁by 1.578125
▁Be 0.060333251953125
ch 0.00029587745666503906
ada 0.000598907470703125
▁is 1.6904296875
▁often 3.740234375
▁anything 10.875
▁but 0.032501220703125
▁objective 2.95703125
▁and 2.16015625
▁shows 4.62109375
▁a 1.5869140625
▁certain 3.19921875
▁propag 4.66015625
and 0.4091796875
ist 0.02630615234375
▁bias 2.11328125
. 0.171630859375
▁To 5.55859375
▁Her 8.234375
lu 0.003757476806640625
in 0.0004115104675292969
, 0.53515625
▁the 1.01953125
▁white 9.90625
▁army 5.57421875
▁' 2.896484375
se 3.3671875
em 3.109375
▁more 3.626953125
▁like 1.228515625
▁ang 2.6796875
els 0.0146942138671875
'. 3.044921875
▁Wh 6.375
ilst 0.0401611328125
▁many 5.48828125
▁chron 6.05078125
icles 0.29833984375
▁did 3.208984375
▁contain 1.8916015625
▁incred 9.1171875
ible 0.407470703125
▁events 3.763671875
, 0.62060546875
▁this 2.142578125
▁could 3.578125
▁also 3.46484375
▁be 0.136474609375
▁seen 0.83056640625
▁as 0.038543701171875
▁propag 0.71337890625
anda 0.037750244140625
▁as 1.05859375
▁the 1.67578125
▁cr 1.650390625
us 4.947185516357422e-05
aders 0.054351806640625
▁were 0.94580078125
▁port 2.66015625
rayed 0.001979827880859375
▁as 0.16845703125
▁having 4.3828125
▁super 1.3125
natural 0.421142578125
▁forces 4.64453125
▁on 0.7685546875
▁their 0.003734588623046875
▁side 0.00917816162109375
, 1.7490234375
▁' 4.29296875
G 3.052734375
od 0.049774169921875
▁sends 5.7265625
▁them 2.072265625
▁to 2.880859375
▁help 2.9140625
▁their 4.375
▁friends 2.904296875
." 7.4296875
▁The 1.748046875
▁role 6.28515625
▁of 0.09674072265625
▁religion 3.421875
▁is 1.009765625
▁also 1.2109375
▁highlight 3.076171875
ed 0.0006308555603027344
, 1.173828125
▁perhaps 6.06640625
▁to 0.54736328125
▁give 3.96484375
▁just 4.9609375
ification 0.0089874267578125
▁to 1.3056640625
▁the 0.301025390625
▁battle 4.49609375
. 0.88037109375
▁The 1.4658203125
▁cr 1.98046875
us 9.167194366455078e-05
ades 4.37890625
▁were 0.33740234375
▁author 9.09375
ised 0.03045654296875
▁by 0.08038330078125
▁the 0.21728515625
▁po 2.625
pe 0.00023090839385986328
▁and 1.1865234375
▁encourag 5.85546875
ed 0.0284576416015625
▁by 0.37060546875
▁many 2.34765625
▁ecc 5.51171875
les 0.0016994476318359375
iast 0.030517578125
ical 0.91064453125
▁sources 4.70703125
. 0.71044921875
▁Be 1.9912109375
ch 0.0009326934814453125
ada 0.0004730224609375
▁may 4.546875
▁have 0.58349609375
▁wished 3.94921875
▁to 0.0290679931640625
▁support 5.39453125
▁the 1.267578125
▁idea 3.650390625
▁that 0.65283203125
▁the 0.708984375
▁victory 4.2734375
▁was 0.63720703125
▁the 3.2421875
▁will 1.9326171875
▁of 0.00711822509765625
▁God 0.0616455078125
. 0.958984375
▁When 4.82421875
▁he 4.484375
▁describes 1.212890625
▁the 0.321044921875
▁death 3.953125
▁of 0.10931396484375
▁Her 2.60546875
ac 4.2421875
lius 0.033172607421875
▁of 4.33984375
▁Pol 7.98046875
ign 3.787109375
ac 0.3056640625
▁he 2.794921875
▁is 3.90234375
▁keen 4.484375
▁to 0.03228759765625
▁emphas 1.927734375
ise 0.04107666015625
▁the 1.18359375
▁moments 9.4296875
▁immediately 4.421875
▁preceding 2.62890625
▁his 0.5673828125
▁death 0.058441162109375
, 0.7373046875
▁' 0.685546875
He 1.95703125
▁spoke 4.765625
▁and 3.611328125
▁made 3.958984375
▁his 1.900390625
▁last 2.603515625
▁test 3.841796875
ament 0.011474609375
▁and 2.443359375
▁took 4.91796875
▁Comm 3.62109375
union 0.00323486328125
, 2.060546875
/ 4.33203125
▁and 1.1494140625
▁then 1.7353515625
▁he 0.98046875
▁dies 6.78515625
▁and 2.6796875
▁met 7.8984375
▁his 0.49951171875
▁end 2.59765625
." 1.5126953125
▁This 1.2646484375
▁would 2.896484375
▁ensure 5.8671875
▁that 0.5146484375
▁people 3.845703125
▁knew 2.890625
▁Her 3.4140625
ac 0.020294189453125
lius 0.0184326171875
▁had 1.6484375
▁died 1.0927734375
▁absol 10.53125
ved 0.11407470703125
▁of 1.076171875
▁all 1.791015625
▁his 1.224609375
▁s 0.0701904296875
ins 0.00012123584747314453
. 1.2021484375
▁There 3.46875
▁is 0.517578125
▁a 1.5615234375
▁great 3.591796875
▁deal 0.6416015625
▁of 0.029296875
▁hyper 3.919921875
bo 0.025848388671875
le 0.00012290477752685547
▁and 2.005859375
▁emot 4.8984375
ive 0.250732421875
▁language 0.340576171875
▁used 1.3447265625
, 1.8017578125
▁again 4.77734375
▁to 0.79931640625
▁acc 5.34765625
ent 0.00775909423828125
uate 0.007541656494140625
▁the 0.1734619140625
▁val 4.0234375
our 0.1944580078125
▁and 1.26171875
▁might 6.0234375
▁of 0.01294708251953125
▁the 0.0223541259765625
▁cr 0.76708984375
us 2.8848648071289062e-05
aders 0.08544921875
. 0.3564453125
▁Her 4.046875
lu 0.408447265625
in 0.0005807876586914062
▁is 0.99609375
▁filled 7.94921875
▁with 0.01947021484375
▁pride 5.05859375
▁upon 5.59765625
▁sight 5.67578125
▁of 0.95703125
▁the 0.1507568359375
▁army 1.923828125
, 0.484375
▁' 0.276123046875
he 3.833984375
▁feels 5.03515625
▁such 2.287109375
▁joy 1.333984375
▁as 3.287109375
▁has 4.26171875
▁never 0.29443359375
▁been 0.283935546875
▁equ 6.23828125
alled 0.06671142578125
'. 3.71484375
▁After 5.0859375
▁the 0.4814453125
▁cr 2.357421875
us 0.006683349609375
aders 0.07232666015625
▁have 1.5029296875
▁fought 4.671875
▁the 1.6259765625
▁Tur 0.302490234375
ks 0.000576019287109375
, 0.59423828125
▁the 1.9755859375
▁land 6.8984375
▁is 0.51025390625
▁described 0.9287109375
▁as 0.1790771484375
, 1.6474609375
▁' 0.01325225830078125
c 5.5703125
rim 2.595703125
son 0.0009188652038574219
▁with 0.8740234375
▁the 1.2890625
▁blood 0.1329345703125
▁flow 6.38671875
ing 0.01593017578125
▁from 0.63232421875
▁the 0.6376953125
▁dead 2.638671875
▁and 1.998046875
▁wounded 1.1337890625
." 1.3115234375
▁This 1.4912109375
▁all 6.36328125
▁serves 3.09375
▁to 0.060211181640625
▁increase 2.40234375
▁the 0.119384765625
▁terror 5.5546875
▁of 0.83837890625
▁the 0.0321044921875
▁army 3.66015625
▁and 0.85009765625
▁show 3.94921875
▁how 1.841796875
▁much 3.19140625
▁they 1.4873046875
▁should 4.80859375
▁be 0.4423828125
▁fe 0.109619140625
ared 0.0001659393310546875
. 0.1982421875
▁Thus 4.3203125
▁there 1.6875
▁is 0.16650390625
▁clearly 3.36328125
▁a 1.568359375
▁propag 0.5244140625
and 0.1483154296875
ist 0.00424957275390625
▁element 1.5859375
▁to 0.35595703125
▁the 0.280517578125
▁C 3.390625
ans 0.0008382797241210938
o 0.0023097991943359375
▁d 0.034271240234375
' 0.0027065277099609375
Ant 0.002513885498046875
i 0.0181884765625
oca 0.0017786026000976562
. 0.880859375
<0x0A> 0.28076171875
The 1.2060546875
▁style 4.703125
▁of 0.3720703125
▁history 6.35546875
▁writing 0.10400390625
▁in 0.84130859375
▁the 0.10858154296875
▁early 5.05078125
▁Middle 0.4658203125
▁A 0.003383636474609375
ges 2.110004425048828e-05
▁included 6.015625
▁many 2.5234375
▁literary 1.0
▁devices 0.515625
, 1.265625
▁and 2.224609375
▁as 4.0859375
▁most 5.87109375
▁were 3.087890625
▁written 0.95263671875
▁as 5.43359375
▁songs 3.466796875
▁to 5.34765625
▁entertain 2.580078125
, 1.390625
▁they 1.2958984375
▁had 2.939453125
▁to 0.62255859375
▁appeal 3.501953125
▁to 0.068603515625
▁an 2.525390625
, 11.2890625
▁often 1.4296875
, 2.265625
▁un 1.267578125
ed 0.0992431640625
uc 1.1682510375976562e-05
ated 0.00030350685119628906
▁audience 0.1832275390625
. 0.09051513671875
▁Thus 2.955078125
▁whilst 6.10546875
▁the 1.220703125
▁Occ 0.8125
itan 0.0057525634765625
▁fragments 0.049560546875
▁of 0.54052734375
▁the 0.041900634765625
▁C 0.0106658935546875
ans 0.0006642341613769531
o 0.0021343231201171875
▁d 0.0116119384765625
' 0.001338958740234375
Ant 0.0015096664428710938
i 0.006992340087890625
oca 0.005199432373046875
▁clearly 4.8828125
▁contain 1.4580078125
▁much 3.78515625
▁hyper 5.2421875
bo 0.0258331298828125
le 4.947185516357422e-05
▁and 0.45751953125
▁ex 1.892578125
agger 0.01059722900390625
ated 3.076171875
▁description 2.98828125
, 0.1275634765625
▁a 5.640625
▁lot 1.6416015625
▁can 4.46484375
▁be 0.978515625
▁lear 2.283203125
nt 2.5033950805664062e-05
▁from 0.5888671875
▁them 0.982421875
▁about 2.814453125
▁the 0.278564453125
▁history 4.26171875
▁of 0.173095703125
▁the 0.1473388671875
▁cr 1.8935546875
us 5.364418029785156e-05
ades 0.039794921875
. 0.4580078125
▁Be 2.416015625
ch 0.001232147216796875
ada 0.00200653076171875
▁is 3.00390625
▁keen 1.875
▁to 0.05975341796875
▁stress 1.966796875
▁the 0.359130859375
▁truth 1.849609375
▁and 1.1708984375
▁authentic 3.970703125
ity 0.00518035888671875
▁of 0.0256195068359375
▁his 0.28369140625
▁work 1.3173828125
, 0.55810546875
▁and 1.265625
▁to 3.595703125
▁distinguish 7.44140625
▁it 0.78076171875
▁from 0.05096435546875
▁mere 5.04296875
▁rom 4.5
ance 0.11328125
, 1.7236328125
▁seen 9.6953125
▁as 1.4677734375
▁a 1.6865234375
▁' 4.2890625
de 4.15625
generate 2.115234375
' 1.6435546875
▁form 0.8564453125
▁of 0.07427978515625
▁art 5.9609375
. 0.396240234375
▁Although 3.27734375
▁the 1.6328125
▁names 8.2890625
▁of 0.411376953125
▁the 0.84228515625
▁soldiers 0.8251953125
▁are 0.91943359375
▁clearly 3.841796875
▁a 3.580078125
▁comm 5.62109375
em 0.14990234375
oration 0.0004372596740722656
▁of 0.65478515625
▁a 3.9609375
▁chosen 7.2109375
▁few 0.252197265625
, 0.132080078125
▁it 1.96484375
▁does 1.7392578125
▁inform 7.5703125
▁histor 5.0859375
ians 0.0019931793212890625
▁of 0.5546875
▁at 6.890625
▁least 0.01038360595703125
▁some 0.5869140625
▁of 0.189208984375
▁the 0.184814453125
▁people 2.810546875
▁who 0.77587890625
▁took 1.2177734375
▁part 0.016693115234375
▁in 0.1539306640625
▁the 0.1318359375
▁battle 1.177734375
▁at 2.0234375
▁Ant 0.004154205322265625
io 0.0004019737243652344
ch 0.0001518726348876953
. 0.2440185546875
▁Their 6.203125
▁orig 6.49609375
ins 0.0004508495330810547
▁are 1.5283203125
▁also 1.6904296875
▁mentioned 3.123046875
, 0.3896484375
▁which 1.9638671875
▁gives 2.1953125
▁histor 2.814453125
ians 0.0007996559143066406
▁an 1.208984375
▁idea 0.96630859375
▁of 0.0780029296875
▁the 0.65869140625
▁national 4.515625
ities 0.67919921875
▁involved 1.6328125
, 2.283203125
▁and 1.287109375
▁shows 4.48046875
▁just 4.48046875
▁how 0.058441162109375
▁far 2.123046875
- 1.7041015625
re 0.072021484375
aching 0.0021820068359375
▁the 0.1798095703125
▁cr 0.3369140625
us 2.586841583251953e-05
ades 0.128662109375
▁were 0.2125244140625
, 2.662109375
▁' 2.02734375
pa 11.3828125
id 0.9814453125
▁soldiers 3.99609375
▁have 6.57421875
▁come 0.1839599609375
▁from 0.1719970703125
▁all 2.27734375
▁corners 3.75
▁of 0.185546875
▁Christ 3.208984375
end 0.0181732177734375
om 0.0019741058349609375
. 4.125
'. 2.2265625
▁Their 4.91015625
▁arm 4.62109375
our 0.2327880859375
▁and 1.111328125
▁appearance 3.931640625
▁are 0.93603515625
▁part 10.2421875
▁of 0.008056640625
▁the 0.2242431640625
▁stock 8.2265625
▁mot 1.6484375
ifs 0.254638671875
▁used 2.98828125
▁in 0.5439453125
▁the 1.96875
▁period 7.53515625
, 0.345458984375
▁but 0.80078125
▁do 4.66796875
▁help 2.4296875
▁us 3.044921875
▁to 0.274169921875
▁understand 1.4443359375
▁what 2.31640625
▁kn 6.6640625
ights 0.053497314453125
▁wore 1.41015625
▁at 2.1171875
▁the 0.5634765625
▁time 0.020538330078125
▁and 1.9013671875
▁what 1.93359375
▁access 9.515625
ories 0.0140380859375
▁they 0.417724609375
▁carried 1.8203125
, 2.083984375
▁' 1.0205078125
they 2.822265625
▁all 3.08984375
▁carry 2.947265625
▁scri 11.421875
ps 0.358154296875
▁in 4.41015625
▁the 3.642578125
▁fashion 4.01171875
▁of 0.1346435546875
▁pil 3.78515625
gr 0.0024127960205078125
ims 0.02001953125
'. 3.166015625
▁Similarly 5.9140625
▁the 1.720703125
▁orig 8.125
ins 0.002628326416015625
▁and 2.41796875
▁appearances 3.52734375
▁of 0.012298583984375
▁those 4.86328125
▁fighting 2.40625
▁against 2.71484375
▁the 0.0748291015625
▁cr 0.28125
us 4.744529724121094e-05
aders 0.030303955078125
▁are 0.58642578125
▁mentioned 2.0234375
, 0.370361328125
▁' 1.08984375
K 4.421875
erb 0.1326904296875
og 0.0233612060546875
ha 0.0091094970703125
▁of 4.29296875
▁Pers 1.689453125
ia 0.025299072265625
, 1.7626953125
▁the 2.13671875
▁king 1.9541015625
▁of 0.58349609375
▁Saf 10.78125
arg 6.55078125
at 8.7109375
, 0.794921875
/ 1.6279296875
▁and 1.9453125
▁Bal 6.8515625
▁of 12.2578125
▁F 5.6484375
emen 9.765625
ia 2.654296875
'. 3.771484375
▁Be 3.5234375
ch 0.0012226104736328125
ada 0.0011873245239257812
▁does 3.0859375
▁conced 8.2421875
e 0.0010271072387695312
▁that 0.259033203125
▁the 0.986328125
▁Tur 1.7724609375
ks 0.0005402565002441406
▁were 0.912109375
▁' 2.82421875
well 3.181640625
▁equ 1.9228515625
ipped 0.00037479400634765625
▁and 1.361328125
▁provision 6.65234375
ed 0.00225830078125
▁for 3.05078125
▁battle 1.94140625
, 3.22265625
/ 1.111328125
▁since 7.19140625
▁their 2.908203125
▁horses 4.1796875
▁are 1.142578125
▁super 5.28125
b 0.0430908203125
▁and 0.951171875
▁the 4.09375
▁men 2.412109375
▁are 0.88623046875
▁well 2.330078125
▁armed 1.4365234375
', 3.890625
▁but 1.0087890625
▁this 2.04296875
▁may 3.712890625
▁have 1.8642578125
▁been 0.195068359375
▁more 3.634765625
▁to 1.080078125
▁prove 5.4453125
▁just 5.375
▁how 0.10186767578125
▁mighty 4.46484375
▁the 0.2406005859375
▁Christian 1.2451171875
▁army 0.136962890625
▁was 0.1815185546875
▁to 4.7421875
▁defeat 5.71875
▁such 0.98193359375
▁strong 4.86328125
▁f 5.3671875
igh 0.0012979507446289062
ters 0.00016117095947265625
. 0.171142578125
▁Thus 2.552734375
▁much 5.06640625
▁can 0.765625
▁be 0.059051513671875
▁lear 0.267578125
nt 1.0251998901367188e-05
▁about 1.2177734375
▁the 0.261474609375
▁appearance 3.06640625
▁of 0.88037109375
▁the 0.73291015625
▁war 4.34375
riors 0.1727294921875
▁and 1.3212890625
▁their 0.97509765625
▁nations 7.2265625
▁of 2.771484375
▁origin 0.0197906494140625
. 1.03125
<0x0A> 0.8330078125
The 1.0087890625
▁C 2.087890625
ans 0.0019063949584960938
o 0.0018825531005859375
▁d 0.00855255126953125
' 0.00290679931640625
Ant 0.00164794921875
i 0.014190673828125
oca 0.0011081695556640625
▁also 3.189453125
▁provides 2.427734375
▁insight 3.22265625
▁into 0.048248291015625
▁the 0.234375
▁legal 9.0390625
ities 3.1640625
▁of 0.4111328125
▁war 1.3544921875
fare 1.2001953125
, 2.248046875
▁and 1.771484375
▁its 5.1640625
▁custom 5.89453125
s 0.02886962890625
. 0.85302734375
▁Ker 5.0625
b 0.0015544891357421875
og 0.00200653076171875
ha 0.0007915496826171875
▁' 3.943359375
sent 3.8203125
▁a 1.7666015625
▁mess 1.998046875
enger 0.0032329559326171875
▁to 0.3740234375
▁propose 5.55859375
▁to 3.505859375
▁the 0.8916015625
▁Fran 3.544921875
ks 0.0244140625
▁that 1.4287109375
▁they 0.5244140625
▁should 1.1640625
▁not 3.49609375
▁let 6.5625
▁their 2.14453125
▁best 7.76171875
▁men 1.107421875
▁be 2.271484375
▁cut 4.5234375
▁to 1.58984375
▁pieces 0.07745361328125
▁and 2.6015625
▁sla 2.669921875
ugh 0.0009975433349609375
tered 0.032562255859375
', 3.41015625
▁but 1.953125
▁instead 5.23828125
▁just 6.73046875
▁thirty 12.59375
▁men 2.140625
▁from 2.306640625
▁each 0.201904296875
▁side 0.8828125
▁' 4.23828125
should 0.444580078125
▁do 3.69140625
▁battle 0.232666015625
▁with 2.232421875
▁each 0.85107421875
▁other 0.005611419677734375
'. 1.46484375
▁He 4.28515625
▁used 6.33984375
▁technical 9.96875
▁legal 3.3359375
▁language 2.333984375
▁and 3.61328125
▁precise 7.05859375
▁negoti 7.87890625
ating 1.890625
▁details 6.31640625
. 2.37109375
▁Although 3.36328125
▁the 1.8447265625
▁reason 6.16015625
▁given 3.4609375
▁for 0.5966796875
▁this 0.92333984375
▁was 1.1298828125
▁Ker 5.68359375
b 0.0011386871337890625
og 0.00156402587890625
ha 0.0031223297119140625
' 0.2352294921875
s 0.0008111000061035156
▁fear 1.4765625
▁at 6.53125
▁defeat 8.8359375
, 0.1319580078125
▁which 4.453125
▁may 2.47265625
▁have 1.216796875
▁been 0.345947265625
▁an 3.556640625
▁ex 1.7685546875
agger 0.00360870361328125
ation 0.0924072265625
, 0.37744140625
▁the 1.9599609375
▁mention 5.22265625
▁of 0.0924072265625
▁' 3.275390625
his 6.4921875
▁mother 7.3046875
▁the 4.1953125
▁queen 2.046875
▁who 3.8515625
▁had 2.69921875
▁deeply 9.8828125
▁fright 6.49609375
ened 0.006847381591796875
▁him 0.10211181640625
' 1.240234375
▁does 2.412109375
▁contain 6.7421875
▁some 0.7060546875
▁truth 0.220458984375
. 0.362060546875
▁The 1.798828125
▁King 5.48828125
' 2.091796875
s 0.0005192756652832031
▁mother 0.96337890625
▁was 1.208984375
▁against 5.62109375
▁the 0.429931640625
▁battle 0.76025390625
▁and 1.32421875
▁tried 3.771484375
▁to 0.0489501953125
▁dis 1.7626953125
su 0.0037326812744140625
ade 0.000492095947265625
▁her 1.3876953125
▁son 0.020355224609375
▁from 0.468994140625
▁getting 5.734375
▁involved 0.160888671875
. 0.80810546875
▁The 2.09765625
▁French 6.4609375
▁rejected 10.0859375
▁this 1.7080078125
▁comprom 4.0234375
ise 0.0033435821533203125
, 0.88037109375
▁as 2.115234375
▁it 1.720703125
▁was 1.029296875
▁not 1.806640625
▁' 4.09765625
the 2.138671875
▁custom 1.529296875
▁here 6.22265625
▁in 2.322265625
▁our 2.541015625
▁kingdom 2.951171875
▁that 2.830078125
▁a 2.544921875
▁Frank 5.640625
▁should 0.82080078125
▁come 5.15625
▁to 0.28955078125
▁a 2.8515625
▁sw 7.4375
orn 0.34765625
▁agreement 1.037109375
▁over 6.90625
▁a 1.697265625
▁battle 1.6943359375
▁once 7.94140625
▁the 2.26953125
▁battle 2.634765625
▁lines 3.71875
▁are 0.88525390625
▁drawn 0.357421875
'. 2.7578125
▁This 1.4619140625
▁gives 4.3359375
▁insight 2.748046875
▁into 0.056732177734375
▁the 0.334228515625
▁legal 2.029296875
▁procedures 4.54296875
▁of 1.0244140625
▁battle 2.607421875
▁during 4.00390625
▁the 0.3515625
▁cr 1.3505859375
us 4.875659942626953e-05
ades 0.0201416015625
. 0.86083984375
▁The 1.724609375
▁fragments 10.1328125
▁also 0.70703125
▁illustrate 5.46875
▁the 0.55029296875
▁rit 6.7578125
uals 0.219482421875
▁of 1.0849609375
▁battle 1.1875
, 0.82568359375
▁such 1.3115234375
▁as 0.0037403106689453125
▁the 0.703125
▁calls 7.08203125
▁to 1.169921875
▁battle 2.10546875
. 2.095703125
▁The 1.6806640625
▁Tur 2.396484375
ks 0.00023555755615234375
, 3.474609375
▁' 0.94970703125
s 3.984375
ounded 2.150390625
▁a 2.134765625
▁horn 2.037109375
▁of 3.908203125
▁car 7.5546875
ved 1.2666015625
▁iv 1.232421875
ory 0.00014483928680419922
, 1.8154296875
/ 1.0703125
▁three 5.90625
▁times 0.392333984375
▁on 4.88671875
▁a 2.609375
▁full 6.765625
▁note 1.1181640625
▁and 2.626953125
▁twice 4.56640625
▁more 3.796875
▁faint 3.34375
ly 0.13427734375
'. 1.24609375
▁This 1.21875
▁again 5.375
▁may 3.314453125
▁have 1.2314453125
▁been 0.11376953125
▁a 2.31640625
▁stock 2.109375
▁mot 0.2303466796875
if 0.00339508056640625
, 0.498046875
▁but 0.19580078125
▁the 2.626953125
▁idea 4.9296875
▁came 8.1875
▁from 0.182373046875
▁somewhere 2.58203125
▁so 4.79296875
▁it 1.0322265625
