▁Introduction 7.8203125
<0x0A> 4.00390625
Te 6.89453125
en 2.560546875
age 1.3251953125
▁suic 4.1171875
ide 0.05218505859375
▁a 9.1328125
▁is 6.68359375
▁pressing 6.95703125
▁issue 1.0224609375
▁that 2.037109375
▁requires 4.078125
▁the 2.474609375
▁collect 5.375
ive 0.0027065277099609375
▁efforts 1.5556640625
▁of 0.07855224609375
▁teachers 5.26953125
▁and 3.033203125
▁parents 0.5693359375
▁to 1.013671875
▁address 2.169921875
▁effectively 3.56640625
. 0.1221923828125
▁Ad 5.5078125
oles 0.0229644775390625
c 0.19091796875
ence 0.90478515625
▁is 0.1982421875
▁a 0.337158203125
▁period 1.4638671875
▁of 0.486572265625
▁vulner 4.14453125
ability 0.0164642333984375
, 1.857421875
▁and 1.7568359375
▁by 6.9609375
▁working 4.84375
▁together 0.396484375
, 0.444580078125
▁teachers 1.220703125
▁and 0.07904052734375
▁parents 0.01259613037109375
▁can 0.11566162109375
▁fost 5.19921875
er 0.00012195110321044922
▁support 3.998046875
ive 0.1322021484375
▁a 8.328125
▁environment 2.22265625
▁that 1.123046875
▁prom 2.39453125
otes 0.00366973876953125
▁mental 1.8349609375
▁well 1.3642578125
- 0.7060546875
be 0.013031005859375
ing 0.0008797645568847656
▁and 0.87939453125
▁prevents 2.20703125
▁te 1.92578125
en 0.011993408203125
age 0.357666015625
▁suic 0.01110076904296875
ide 0.060272216796875
. 0.09295654296875
▁This 2.603515625
▁ess 1.298828125
ay 0.002178192138671875
▁will 0.4013671875
▁explore 1.33203125
▁recommend 8.46875
ations 0.00421142578125
▁collaboration 12.3515625
▁for 4.2421875
▁between 6.83984375
▁teachers 0.4833984375
▁and 0.04376220703125
▁parents 0.026519775390625
▁and 3.53125
▁discuss 2.841796875
▁strateg 2.2890625
ies 0.0010528564453125
▁for 0.83935546875
▁effectively 4.2734375
▁communic 1.7646484375
ating 0.004085540771484375
▁with 0.5537109375
▁at 4.91015625
- 0.0308685302734375
ris 0.0016460418701171875
k 0.0003714561462402344
▁te 0.7705078125
en 0.984375
agers 0.059661865234375
. 0.2342529296875
<0x0A> 0.51123046875
Re 1.9287109375
comm 0.02740478515625
end 0.04833984375
ations 0.09991455078125
▁for 0.1326904296875
▁Coll 0.400634765625
abor 0.00022852420806884766
ation 0.03515625
<0x0A> 2.42578125
1 4.6875
. 0.126220703125
▁Est 1.6845703125
ab 7.56978988647461e-05
lish 0.00394439697265625
▁Open 2.958984375
▁Ch 6.640625
annels 0.000659942626953125
▁of 0.04718017578125
▁Communic 0.0052337646484375
ation 0.004436492919921875
: 1.3828125
<0x0A> 1.306640625
B 4.3671875
oth 0.174072265625
▁parents 1.36328125
▁and 0.005649566650390625
▁teachers 0.034454345703125
▁need 3.076171875
▁to 0.038818359375
▁initi 7.00390625
ate 0.0028705596923828125
▁open 0.72998046875
▁and 2.0234375
▁on 2.701171875
going 0.0117950439453125
▁communication 0.50146484375
▁to 1.3271484375
▁ensure 1.78125
▁hol 9.8671875
istic 0.002956390380859375
▁a 7.36328125
▁understanding 3.248046875
▁of 0.1165771484375
▁a 1.5693359375
▁student 1.0322265625
' 0.7109375
s 0.0014619827270507812
▁emot 2.5703125
ional 0.0249176025390625
▁well 1.568359375
- 0.07769775390625
be 0.009124755859375
ing 0.0023670196533203125
. 0.2266845703125
▁Te 1.802734375
ach 0.0177001953125
ers 0.0004162788391113281
▁can 0.8388671875
▁organ 6.36328125
ize 0.156982421875
▁meet 3.11328125
ings 0.0018186569213867188
▁and 3.3515625
▁parent 2.2109375
- 0.1746826171875
te 0.0066070556640625
acher 0.003173828125
▁con 0.254150390625
ferences 6.914138793945312e-05
, 2.3359375
▁allowing 5.81640625
▁them 2.369140625
▁to 0.07049560546875
▁share 1.0869140625
▁their 2.52734375
▁concerns 1.1416015625
▁and 0.7646484375
▁ins 3.4765625
ights 0.0005068778991699219
▁about 1.21484375
▁a 0.452880859375
▁student 0.20263671875
' 0.1534423828125
s 0.0022754669189453125
▁behavior 1.423828125
▁performance 10.5703125
. 0.80810546875
▁and 6.86328125
▁academic 1.83203125
▁Similarly 10.734375
, 0.0305023193359375
▁parents 0.095458984375
▁should 1.4482421875
▁act 3.44921875
ively 0.005840301513671875
▁eng 1.66796875
age 0.005218505859375
▁with 1.0712890625
▁teachers 0.86376953125
, 1.8349609375
▁valu 10.1875
ing 0.00922393798828125
▁their 0.274169921875
▁observations 2.880859375
▁and 0.26171875
▁seeking 3.16015625
▁their 1.1904296875
▁guidance 1.9736328125
▁in 2.396484375
▁ident 4.43359375
ifying 0.0007576942443847656
▁of 8.2734375
▁signs 3.396484375
▁dist 6.55078125
ress 0.0087890625
. 1.2900390625
<0x0A> 1.0341796875
2 0.1417236328125
. 0.01284027099609375
▁M 5.3359375
ental 3.353515625
▁En 9.1171875
hanced 3.962890625
▁Health 1.0947265625
▁Education 2.7578125
: 0.2498779296875
<0x0A> 0.0276336669921875
Par 3.56640625
ents 0.0007176399230957031
▁and 0.2427978515625
▁teachers 0.08319091796875
▁must 3.1015625
▁collabor 2.291015625
ate 0.0216217041015625
▁to 0.27685546875
▁advoc 5.015625
ate 0.005035400390625
▁for 0.267822265625
▁en 2.310546875
hanced 0.018280029296875
▁mental 0.242431640625
▁health 0.302490234375
▁education 0.1971435546875
▁in 0.468017578125
▁schools 0.18505859375
. 0.34033203125
▁An 6.20703125
▁inclus 3.818359375
ive 0.004302978515625
▁curr 0.7958984375
icul 0.004886627197265625
um 0.0003337860107421875
▁should 1.5654296875
▁include 2.328125
▁teaching 4.3515625
▁students 2.28515625
▁about 0.52783203125
▁their 5.83984375
▁emot 0.9384765625
ions 0.517578125
, 0.7236328125
▁cop 1.80078125
ing 0.0005464553833007812
▁mechan 1.98828125
isms 0.00150299072265625
, 0.270263671875
▁and 0.1663818359375
▁how 1.9169921875
▁to 0.0589599609375
▁stress 11.65625
. 2.853515625
▁manage 3.607421875
▁By 6.16015625
▁including 4.296875
▁mental 1.0830078125
▁health 0.18359375
▁discuss 6.66015625
ions 0.0169830322265625
▁as 3.544921875
▁a 1.515625
▁regular 1.2060546875
▁part 0.331787109375
▁of 0.0919189453125
▁the 0.6533203125
▁education 3.333984375
▁process 2.6484375
, 0.0634765625
▁both 2.724609375
▁teachers 1.10546875
▁and 0.034942626953125
▁parents 0.0255126953125
▁help 5.58984375
▁to 1.353515625
▁normal 2.71484375
ize 0.0215301513671875
▁convers 2.236328125
ations 0.0019931793212890625
▁around 1.62109375
▁mental 0.232177734375
▁health 0.5166015625
▁and 0.53564453125
▁provide 3.36328125
▁students 0.95556640625
▁with 0.05841064453125
▁important 5.125
▁information 2.484375
▁on 2.80078125
▁how 0.293212890625
▁to 0.05633544921875
▁seek 1.6494140625
▁help 0.4443359375
. 1.33203125
<0x0A> 0.11395263671875
3 0.0765380859375
. 0.0081787109375
▁Enc 3.294921875
ou 0.0003833770751953125
rage 0.132080078125
▁an 5.77734375
▁In 3.021484375
clus 0.06658935546875
ive 0.0007715225219726562
▁Class 2.111328125
room 0.00923919677734375
▁Environment 0.47412109375
: 0.02642822265625
<0x0A> 0.003902435302734375
T 1.6787109375
each 0.01300048828125
ers 0.005146026611328125
▁can 3.4765625
▁work 2.740234375
▁towards 5.65625
▁fost 2.005859375
ering 0.007427215576171875
▁an 0.5849609375
▁inclus 0.2093505859375
ive 0.0003600120544433594
▁and 2.443359375
▁support 0.439453125
ive 0.0013065338134765625
▁class 0.603515625
room 0.00832366943359375
▁environment 0.1368408203125
▁that 1.5986328125
▁prom 1.0478515625
otes 9.441375732421875e-05
▁mental 0.9091796875
▁well 0.1962890625
- 0.08087158203125
be 0.005878448486328125
ing 0.0003676414489746094
. 0.59619140625
▁By 1.9345703125
▁prevent 8.3671875
ing 0.059417724609375
▁bul 0.88134765625
lying 0.00275421142578125
▁and 0.62841796875
▁creating 1.763671875
▁a 0.55908203125
▁safe 0.85107421875
▁space 0.281494140625
▁for 0.268798828125
▁to 7.96875
▁express 1.125
▁students 4.41796875
▁themselves 4.77734375
, 0.37939453125
▁teachers 0.30419921875
▁can 0.351806640625
▁contribute 4.78515625
▁significantly 4.1328125
▁to 0.529296875
▁reducing 2.09765625
▁the 0.80029296875
▁risk 0.388916015625
▁of 0.09442138671875
▁te 0.7431640625
en 0.0006642341613769531
age 0.0377197265625
▁suic 0.070556640625
ide 0.010101318359375
. 0.07403564453125
▁Inform 10.375
ing 1.578125
▁parents 1.1533203125
▁about 1.0107421875
▁the 1.181640625
▁steps 2.671875
▁taken 1.212890625
▁to 0.5224609375
▁maintain 3.94921875
▁an 1.80078125
▁inclus 0.1800537109375
ive 0.00026416778564453125
▁class 0.87451171875
room 0.0175018310546875
▁will 3.3125
▁help 1.103515625
▁ensure 3.20703125
▁consist 5.46875
ency 0.00505828857421875
▁and 0.951171875
▁collaboration 3.21875
▁between 1.033203125
▁home 0.935546875
▁and 0.037078857421875
▁school 0.053619384765625
. 0.1015625
<0x0A> 0.05169677734375
4 0.6552734375
. 0.006984710693359375
▁Early 3.91796875
▁Ident 1.4970703125
ification 0.00904083251953125
▁and 0.98291015625
▁Inter 0.279541015625
vention 0.00897216796875
: 0.07470703125
<0x0A> 0.006923675537109375
T 1.9189453125
each 0.04541015625
ers 0.004329681396484375
▁and 0.28564453125
▁parents 0.01192474365234375
▁should 0.80078125
▁collabor 1.671875
ate 0.009002685546875
▁to 0.12152099609375
▁identify 0.322509765625
▁warning 3.765625
▁signs 0.05718994140625
▁and 2.279296875
▁risk 1.990234375
▁factors 0.039459228515625
▁associated 2.572265625
▁with 0.039306640625
▁te 0.302978515625
en 0.00043010711669921875
age 0.01534271240234375
▁suic 0.0286102294921875
ide 0.011688232421875
, 2.171875
▁such 0.73681640625
▁as 0.0280914306640625
▁withdraw 4.1796875
al 0.0270538330078125
▁from 1.5595703125
▁social 0.671875
▁activities 0.7265625
, 0.15478515625
▁decl 4.51953125
ining 0.79150390625
▁academic 0.64892578125
▁performance 0.043304443359375
, 0.0635986328125
▁or 1.9150390625
▁sudden 4.0234375
▁m 2.609375
ood 0.0001685619354248047
▁sw 1.60546875
ings 3.325939178466797e-05
. 0.040313720703125
▁Te 4.71875
ach 0.01230621337890625
ers 0.00029206275939941406
, 5.34375
▁with 3.87890625
▁their 2.017578125
▁regular 2.564453125
▁interactions 1.181640625
▁with 0.080322265625
▁students 0.26416015625
, 0.066162109375
▁can 1.314453125
▁act 3.970703125
▁as 0.2205810546875
▁the 1.1044921875
▁first 0.260498046875
▁line 0.2197265625
▁defense 6.41015625
▁of 4.55859375
▁by 6.05859375
▁reporting 4.02734375
▁concerns 2.84375
▁prompt 4.45703125
ly 0.00897216796875
▁to 1.033203125
▁parents 0.2247314453125
. 1.0869140625
▁Par 2.484375
ents 0.00583648681640625
, 0.89453125
▁in 1.314453125
▁turn 0.06036376953125
, 0.01441192626953125
▁should 1.3916015625
▁take 3.115234375
▁these 1.0498046875
▁concerns 0.5078125
▁seriously 0.056304931640625
▁and 0.170654296875
▁work 2.025390625
▁collect 7.28515625
ively 0.0036983489990234375
▁with 0.5546875
▁teachers 0.27783203125
▁to 0.12939453125
▁offer 5.3671875
▁appropriate 1.71875
▁support 0.63525390625
▁and 0.658203125
▁inter 1.26171875
vention 0.326416015625
▁tail 8.4609375
ored 0.0188751220703125
▁to 0.218017578125
▁the 0.79296875
▁student 1.671875
' 0.0838623046875
s 0.0006136894226074219
▁needs 0.70068359375
. 0.040557861328125
<0x0A> 0.04718017578125
Str 1.7158203125
ateg 0.00038909912109375
ies 0.0008487701416015625
▁for 0.058380126953125
▁Effect 0.5546875
ively 0.8623046875
▁Communic 0.0212860107421875
ating 0.00811004638671875
▁with 0.1510009765625
▁At 0.205810546875
- 0.006435394287109375
R 0.07403564453125
isk 0.0006256103515625
▁Te 0.0927734375
en 0.1234130859375
agers 0.0071563720703125
<0x0A> 0.07025146484375
1 0.426513671875
. 0.007312774658203125
▁Active 2.869140625
▁List 0.048614501953125
ening 0.0015544891357421875
: 0.241455078125
<0x0A> 0.07958984375
When 2.87890625
▁communic 0.274169921875
ating 0.0003223419189453125
▁with 0.01580810546875
▁at 0.24609375
- 0.0023326873779296875
ris 0.0009822845458984375
k 0.0002593994140625
▁te 0.0670166015625
en 0.01910400390625
agers 0.003482818603515625
, 0.0211029052734375
▁both 3.78515625
▁parents 0.7861328125
▁and 0.004932403564453125
▁teachers 0.006534576416015625
▁should 0.435546875
▁prior 2.2421875
it 0.0007224082946777344
ize 0.011260986328125
▁active 0.0941162109375
▁listening 0.0284423828125
. 0.7255859375
▁G 5.7890625
enu 2.8828125
ine 0.55859375
▁em 2.76171875
path 0.0032024383544921875
y 0.06158447265625
, 2.4609375
▁attention 4.4921875
, 0.1868896484375
▁and 0.0338134765625
▁understanding 1.8642578125
▁can 1.1416015625
▁alle 6.25390625
vi 0.000263214111328125
ate 0.0007967948913574219
▁any 3.861328125
▁feelings 1.5830078125
▁of 0.0831298828125
▁isol 0.9052734375
ation 0.0008578300476074219
▁or 0.79833984375
▁hop 2.044921875
eless 0.0007767677307128906
ness 0.004154205322265625
▁that 1.599609375
▁the 2.298828125
▁te 1.2353515625
en 0.007007598876953125
ager 0.6650390625
▁may 0.1966552734375
▁be 0.11407470703125
▁experien 0.1080322265625
cing 2.6226043701171875e-06
. 0.1026611328125
▁By 1.8466796875
▁listening 2.3515625
▁act 1.6201171875
ively 8.20159912109375e-05
▁without 4.33984375
▁judgment 0.49951171875
, 0.63671875
▁adult 3.275390625
s 0.01195526123046875
▁can 0.2222900390625
▁provide 2.228515625
▁a 0.6923828125
▁safe 0.396240234375
▁space 0.312744140625
▁for 0.1287841796875
▁te 1.78125
en 0.11810302734375
agers 0.006549835205078125
▁to 0.025054931640625
▁start 9.7734375
▁sharing 2.6328125
▁their 0.1807861328125
▁thoughts 0.97265625
▁and 0.228759765625
▁emot 1.7109375
ions 0.006252288818359375
. 0.373779296875
<0x0A> 0.1328125
2 0.10284423828125
. 0.0039520263671875
▁P 6.43359375
atience 0.3125
▁and 0.1846923828125
▁Non 4.08203125
- 0.09661865234375
J 0.329833984375
ud 0.00019168853759765625
gment 0.1318359375
al 1.0048828125
▁Att 0.95947265625
itude 0.0282440185546875
: 0.016326904296875
<0x0A> 0.0025501251220703125
T 2.720703125
each 0.059478759765625
ers 0.03515625
▁and 0.046234130859375
▁parents 0.00726318359375
▁must 1.806640625
▁p 7.50390625
atience 0.225830078125
▁maintain 3.755859375
▁and 1.0048828125
▁avoid 3.1953125
▁passing 3.62890625
▁jud 2.01953125
g 0.0014982223510742188
ments 0.888671875
▁when 1.0537109375
▁discuss 5.171875
ing 0.004116058349609375
▁sensitive 0.87646484375
▁topics 0.46728515625
▁with 0.85888671875
▁at 0.306884765625
- 0.0018024444580078125
ris 0.0014009475708007812
k 0.00021135807037353516
▁te 0.05322265625
en 0.01540374755859375
agers 0.0030460357666015625
. 0.0256195068359375
▁Remember 5.19921875
▁that 0.515625
▁they 2.419921875
▁may 1.162109375
▁find 5.4375
▁it 0.151611328125
▁difficult 0.226806640625
▁to 0.07672119140625
▁art 3.712890625
ic 0.0016384124755859375
ulate 0.0005183219909667969
▁their 0.107666015625
▁emot 1.826171875
ions 0.0302581787109375
, 1.373046875
▁fear 5.8671875
s 0.038543701171875
, 0.09368896484375
▁or 1.462890625
▁strugg 2.080078125
les 0.00043773651123046875
. 0.8564453125
▁By 1.66796875
▁creating 4.125
▁an 2.068359375
▁environment 0.7890625
▁free 2.439453125
▁from 0.7607421875
▁criticism 1.427734375
▁and 1.0380859375
▁judgment 1.8564453125
, 0.038177490234375
▁adult 0.8828125
s 0.0021457672119140625
▁can 0.129638671875
▁encou 1.3623046875
rage 5.829334259033203e-05
▁te 1.1337890625
en 0.02642822265625
agers 0.00409698486328125
▁to 0.041656494140625
▁speak 3.49609375
▁open 0.63232421875
ly 0.0047454833984375
, 3.783203125
▁fost 4.6328125
ering 0.0308380126953125
▁trust 1.138671875
▁and 0.1524658203125
▁communication 3.044921875
. 0.12017822265625
<0x0A> 0.044281005859375
3 0.0738525390625
. 0.0030651092529296875
▁Coll 3.69921875
abor 0.00030517578125
ative 0.74267578125
▁Problem 1.712890625
- 0.29541015625
Sol 0.0152740478515625
ving 0.0033321380615234375
: 0.0765380859375
<0x0A> 0.0019235610961914062
Inst 4.12890625
ead 0.0011110305786132812
▁of 0.0662841796875
▁impos 3.19140625
ing 0.00014734268188476562
▁solutions 0.3388671875
, 0.67578125
▁teachers 0.81689453125
▁and 0.0382080078125
▁parents 0.0073089599609375
▁should 0.343994140625
▁eng 3.23046875
age 0.001293182373046875
▁in 0.3564453125
▁problem 2.625
- 0.01056671142578125
sol 0.00469207763671875
ving 0.002033233642578125
▁collabor 1.9453125
ative 1.95703125
▁with 0.83544921875
▁at 0.2030029296875
- 0.0013246536254882812
ris 0.0008196830749511719
k 0.0002803802490234375
▁te 0.0176544189453125
en 0.00432586669921875
agers 0.0024280548095703125
. 0.09906005859375
▁te 8.4609375
en 0.09136962890625
agers 0.30322265625
▁Enc 4.6484375
ou 0.0001512765884399414
rage 0.53369140625
▁to 4.86328125
▁express 2.7578125
▁their 0.2294921875
▁on 9.875
▁thoughts 3.3984375
▁potential 8.53125
▁solutions 0.9443359375
▁and 1.1923828125
▁work 2.40625
▁together 0.381591796875
▁to 0.178955078125
▁create 2.876953125
▁an 2.81640625
▁action 0.34521484375
▁plan 0.1397705078125
, 4.71484375
▁them 10.0546875
▁emp 3.087890625
ower 0.004985809326171875
ing 0.1092529296875
▁take 6.41796875
▁to 3.5859375
▁ownership 4.40625
▁of 0.72021484375
▁their 0.58837890625
▁mental 2.123046875
▁well 0.7548828125
- 0.07861328125
be 0.0027942657470703125
ing 3.838539123535156e-05
. 0.2578125
▁approach 8.0625
▁This 3.119140625
▁enh 7.515625
ance 3.912109375
▁will 3.62109375
▁their 3.2890625
▁confidence 3.029296875
▁and 0.6259765625
▁rein 5.40234375
force 0.08172607421875
▁the 0.6708984375
▁idea 1.650390625
▁that 0.056854248046875
▁they 0.496826171875
▁are 0.5517578125
▁not 0.52099609375
▁alone 0.06787109375
▁in 0.40625
▁their 0.505859375
▁strugg 0.1805419921875
les 0.00018775463104248047
. 0.1214599609375
<0x0A> 0.0265655517578125
4 0.16796875
. 0.0030422210693359375
▁Refer 3.66015625
ring 3.634765625
▁to 0.2274169921875
▁Professional 1.1337890625
▁Help 0.80810546875
: 0.114990234375
<0x0A> 0.0014410018920898438
T 2.78125
each 0.01180267333984375
ers 0.0043792724609375
▁and 0.047271728515625
▁parents 0.00878143310546875
▁should 0.24560546875
▁be 2.029296875
▁aware 0.830078125
▁of 0.14453125
▁their 3.494140625
▁limitations 1.275390625
▁and 0.413818359375
▁be 2.84765625
▁prepared 1.1220703125
▁to 0.02593994140625
▁refer 0.1357421875
▁at 0.68994140625
- 0.005401611328125
ris 0.0013294219970703125
k 0.00029087066650390625
▁te 0.039947509765625
en 0.0031032562255859375
agers 0.00423431396484375
▁to 0.114013671875
▁mental 3.259765625
▁health 0.0872802734375
▁profession 0.1649169921875
als 0.0004813671112060547
▁when 1.083984375
▁necessary 0.35498046875
. 0.016998291015625
▁This 2.865234375
▁communication 6.73828125
▁should 2.0859375
▁be 0.6611328125
▁carried 5.109375
▁out 0.0404052734375
▁sens 2.435546875
it 0.020172119140625
ively 0.0007891654968261719
, 0.81201171875
▁highlight 4.0234375
ing 0.013214111328125
▁professional 6.8984375
▁assistance 3.03515625
▁as 0.3837890625
▁an 1.2900390625
▁additional 1.66796875
▁support 1.728515625
▁system 2.865234375
▁rather 1.171875
▁than 0.0194244384765625
▁a 0.5400390625
▁replacement 2.37109375
▁for 0.2342529296875
▁family 1.41796875
▁or 1.3427734375
▁school 1.0009765625
▁alarm 15.4921875
ing 3.658203125
▁relationships 6.69921875
. 0.0931396484375
<0x0A> 0.54931640625
Con 3.603515625
clusion 0.047760009765625
<0x0A> 2.5546875
The 2.962890625
▁rise 6.0
▁of 0.79931640625
▁te 0.202392578125
en 0.00023877620697021484
age 0.0226287841796875
▁suic 0.01439666748046875
ide 0.071533203125
▁necess 4.2109375
it 0.02679443359375
ates 0.0014514923095703125
▁a 1.5751953125
▁joint 4.19140625
▁effort 0.263671875
▁between 0.84033203125
▁teachers 0.314208984375
▁and 0.03607177734375
▁parents 0.0087890625
▁to 0.1893310546875
▁create 1.72265625
▁a 0.4404296875
▁protect 4.96875
ive 0.002468109130859375
▁and 1.6962890625
▁n 2.408203125
urt 0.01336669921875
uring 0.0003151893615722656
▁environment 0.10833740234375
▁for 0.33203125
▁our 3.0625
▁youth 1.052734375
. 0.03863525390625
▁By 0.84423828125
▁establish 1.376953125
ing 0.00038623809814453125
▁open 0.1651611328125
▁channels 0.6201171875
▁of 0.0230255126953125
▁communication 0.0072479248046875
, 0.0584716796875
▁mental 4.61328125
▁en 2.45703125
han 0.98828125
cing 0.00031495094299316406
▁health 0.25390625
▁education 0.03704833984375
, 0.04864501953125
▁fost 1.15625
ering 0.00128173828125
▁an 0.2607421875
▁inclus 0.01019287109375
ive 8.940696716308594e-05
▁class 0.0552978515625
room 0.0014467239379882812
, 3.298828125
▁early 1.4306640625
▁identification 0.5390625
, 1.8740234375
▁and 0.11883544921875
▁inter 0.83544921875
vention 0.022064208984375
, 0.141845703125
▁parents 4.08203125
▁and 0.208251953125
▁teachers 0.0218658447265625
▁can 0.09600830078125
▁work 1.328125
▁together 0.346923828125
▁to 0.105224609375
▁address 3.33984375
▁this 1.64453125
▁critical 2.46484375
▁issue 0.11871337890625
. 0.410888671875
▁Emp 6.00390625
loy 0.8955078125
ing 0.0289764404296875
▁strateg 1.5732421875
ies 0.0017337799072265625
▁such 0.86376953125
▁as 0.0117950439453125
▁active 0.0311279296875
▁listening 0.009735107421875
, 0.0240020751953125
▁a 2.275390625
▁non 1.1455078125
- 0.0187835693359375
jud 0.012969970703125
gment 0.010650634765625
al 0.0037212371826171875
▁attitude 0.2113037109375
, 0.0135498046875
▁collabor 0.15234375
ative 0.0019073486328125
▁problem 0.0149993896484375
- 0.0276336669921875
sol 0.004055023193359375
ving 0.00017905235290527344
, 0.0293731689453125
▁and 0.0142669677734375
▁appropriate 3.76953125
▁refer 0.11651611328125
r 0.6630859375
als 0.0004506111145019531
▁to 0.328369140625
▁professional 0.336181640625
▁help 0.10968017578125
▁will 2.12890625
▁contribute 3.337890625
▁significantly 1.0341796875
▁to 0.15771484375
▁effectively 5.40625
▁communicate 3.296875
▁with 0.1407470703125
▁at 0.12213134765625
- 0.0033245086669921875
ris 0.0017156600952148438
k 0.0002696514129638672
▁te 0.03839111328125
en 0.0028018951416015625
agers 0.0034027099609375
. 0.88671875
▁Through 4.5859375
▁consistent 5.26953125
▁collaboration 1.40234375
, 1.068359375
▁we 0.966796875
▁can 0.033416748046875
▁create 2.04296875
▁a 0.2294921875
▁support 1.7548828125
ive 0.0218963623046875
▁network 4.1328125
▁that 0.71484375
▁ens 3.35546875
ures 0.0005331039428710938
▁the 0.64892578125
▁emot 2.267578125
ional 6.258487701416016e-05
▁well 0.324462890625
- 0.038604736328125
be 0.0013904571533203125
ing 0.0004227161407470703
▁of 0.323974609375
▁our 0.23779296875
▁ad 3.080078125
oles 4.0531158447265625e-05
c 0.10809326171875
ents 0.00939178466796875
, 2.697265625
▁prevent 0.9384765625
ing 0.033294677734375
▁te 0.8291015625
en 0.0002837181091308594
age 0.0254364013671875
▁suic 0.007511138916015625
ide 0.03509521484375
▁and 0.78125
▁fost 2.384765625
ering 0.00252532958984375
▁lif 4.8125
el 0.0025005340576171875
ong 1.7404556274414062e-05
▁res 1.1806640625
ili 0.05755615234375
ence 3.886222839355469e-05
. 0.11553955078125
