▁R 5.7109375
eli 4.48046875
ability 1.2353515625
▁is 3.18359375
▁the 1.62109375
▁extent 5.671875
▁to 0.036224365234375
▁which 0.0019235610961914062
▁a 0.60791015625
▁measurement 3.115234375
▁research 11.09375
▁or 4.29296875
▁technique 3.94921875
▁yields 2.470703125
▁consist 3.416015625
ently 0.039764404296875
▁the 1.5205078125
▁same 0.0251617431640625
▁results 0.75830078125
▁when 1.7705078125
▁repeated 2.21484375
. 0.70263671875
▁It 3.279296875
▁is 0.381591796875
▁cru 5.59375
cial 0.0227508544921875
▁research 8.4140625
▁in 3.556640625
▁as 7.44921875
▁it 3.0390625
▁for 9.4765625
▁allows 7.50390625
▁the 1.8447265625
▁rep 3.515625
lication 0.148681640625
▁of 0.1876220703125
▁studies 2.9140625
▁and 1.1552734375
▁the 1.9287109375
▁confidence 5.12890625
▁in 0.826171875
▁the 0.826171875
▁stability 7.80078125
▁of 0.2122802734375
▁find 2.6328125
ings 0.0005106925964355469
. 0.417236328125
▁Cons 6.64453125
ist 0.298828125
ency 0.0098876953125
▁of 2.103515625
▁data 3.384765625
▁is 1.02734375
▁a 2.234375
▁key 1.76953125
▁factor 2.115234375
▁in 0.427734375
▁ach 6.0390625
ieving 0.0030670166015625
▁reli 1.654296875
ability 0.0020084381103515625
. 0.57568359375
▁For 4.08984375
▁example 0.54052734375
, 0.08740234375
▁if 1.0751953125
▁a 0.9267578125
▁research 0.95751953125
er 0.1788330078125
▁is 2.470703125
▁conduct 2.48046875
ing 0.00458526611328125
▁a 0.462158203125
▁meas 8.015625
uring 0.026153564453125
▁survey 4.75390625
▁stress 12.2890625
▁levels 1.21875
▁in 1.7099609375
▁a 1.373046875
▁it 13.15625
▁population 3.62109375
, 0.6923828125
▁is 6.4765625
▁important 2.6328125
▁that 0.483154296875
▁the 0.54345703125
▁questions 4.43359375
▁are 1.16015625
▁phr 3.052734375
ased 0.0061187744140625
▁consist 2.076171875
ently 0.01331329345703125
▁and 1.24609375
▁the 1.41015625
▁data 3.197265625
▁collection 3.4921875
▁process 1.921875
▁remains 3.0234375
▁the 0.64453125
▁same 0.047760009765625
. 0.95068359375
▁In 3.232421875
cons 3.75
istent 1.1142578125
▁question 4.0859375
▁formatting 6.08984375
▁or 0.86083984375
▁variations 5.4140625
▁in 0.07281494140625
▁data 1.267578125
▁collection 0.10894775390625
▁methods 1.6181640625
▁could 2.0546875
▁lead 1.64453125
▁to 0.033477783203125
▁un 2.09375
re 0.07611083984375
li 0.0007166862487792969
able 0.03753662109375
▁results 0.8740234375
, 3.19140625
▁weak 7.2265625
ening 0.133056640625
▁the 0.160400390625
▁valid 1.4580078125
ity 0.001354217529296875
▁of 0.236572265625
▁the 0.3271484375
▁study 0.98974609375
. 0.2298583984375
<0x0A> 0.529296875
Cons 5.25390625
ist 0.2427978515625
ency 0.0101165771484375
▁of 1.8466796875
▁research 3.267578125
▁techniques 4.30078125
▁is 0.88720703125
▁also 1.26171875
▁essential 2.833984375
▁in 1.689453125
▁establish 3.35546875
ing 0.006252288818359375
▁reli 0.32421875
ability 0.0016269683837890625
. 0.2281494140625
▁Research 2.8203125
ers 0.53564453125
▁must 1.115234375
▁use 2.001953125
▁procedures 6.1328125
▁standard 7.35546875
ized 0.412841796875
▁to 1.556640625
▁ensure 1.4384765625
▁consist 2.421875
ency 0.0179290771484375
▁across 3.1953125
▁studies 1.931640625
. 0.42724609375
▁For 1.7783203125
▁in 8.8515625
▁instance 4.44921875
, 0.03631591796875
▁an 4.34765625
▁experiment 0.458984375
▁testing 3.490234375
▁the 0.27734375
▁effect 0.9697265625
▁a 6.71484375
▁of 3.341796875
▁new 3.322265625
▁drug 1.2041015625
▁on 0.371337890625
▁pressure 9.40625
, 3.27734375
▁blood 3.42578125
▁is 5.2109375
▁it 3.435546875
▁cru 4.75
cial 0.001079559326171875
▁to 2.3515625
▁follow 3.201171875
▁standard 2.583984375
ized 0.5703125
▁a 7.28125
▁protocol 1.611328125
, 3.46875
▁ens 3.734375
uring 0.0020427703857421875
▁the 2.126953125
▁administration 5.76171875
▁of 0.258544921875
▁the 0.263427734375
▁drug 0.51611328125
, 2.513671875
▁measurement 2.564453125
▁of 0.197998046875
▁blood 0.68505859375
▁and 5.23046875
▁pressure 2.201171875
, 0.77734375
▁data 4.6484375
▁analysis 1.5205078125
▁procedures 4.65625
▁are 1.8115234375
▁consistent 1.8662109375
. 0.97216796875
▁This 3.322265625
▁consist 1.1611328125
ency 0.0012464523315429688
▁allows 1.8876953125
▁for 1.140625
▁the 1.3984375
▁comparison 1.8701171875
▁find 8.421875
ings 0.034820556640625
▁of 2.490234375
▁across 4.05078125
▁different 2.1953125
▁studies 0.34765625
, 1.251953125
▁strength 2.888671875
ening 0.006336212158203125
▁the 0.364013671875
▁reli 0.6201171875
ability 0.0017805099487304688
▁of 0.2666015625
▁the 0.59619140625
▁research 0.9375
. 0.165771484375
<0x0A> 0.376953125
Valid 5.5859375
ity 0.01082611083984375
, 3.822265625
▁on 1.744140625
▁the 0.050201416015625
▁hand 3.708984375
, 0.041015625
▁other 9.265625
▁to 5.875
▁refers 6.52734375
▁the 1.4423828125
▁accuracy 2.39453125
▁and 1.6884765625
▁fact 9.578125
ual 0.08099365234375
ness 1.8955078125
▁of 0.249755859375
▁research 1.4951171875
▁data 3.2421875
▁and 2.677734375
▁instruments 8.890625
. 0.151611328125
▁It 1.3271484375
▁is 0.61279296875
▁extent 8.4765625
▁the 2.990234375
▁to 1.6181640625
▁which 0.79052734375
▁a 0.82373046875
▁study 2.37890625
▁measures 1.3798828125
▁what 0.285888671875
▁it 0.10247802734375
▁claims 2.20703125
▁to 0.211669921875
▁measure 0.281005859375
. 0.552734375
▁To 3.333984375
▁valid 4.1484375
ity 0.11627197265625
, 1.8818359375
▁achieve 9.984375
▁research 1.876953125
ers 0.411865234375
▁must 0.6455078125
▁ensure 1.251953125
▁that 0.431640625
▁their 0.5810546875
▁measurements 2.833984375
▁accur 1.3232421875
ately 0.00010132789611816406
▁represent 2.12890625
▁the 0.417724609375
▁of 6.71875
▁variables 3.966796875
▁interest 7.35546875
. 0.7060546875
▁For 0.492431640625
▁example 0.43115234375
, 0.0146636962890625
▁if 1.0673828125
▁a 0.272705078125
▁study 1.404296875
▁to 4.52734375
▁a 3.3203125
ims 0.697265625
▁measure 3.0859375
▁job 4.890625
▁satisfaction 0.317138671875
, 0.74169921875
▁it 0.99365234375
▁is 0.4306640625
▁imper 4.98828125
ative 0.0009245872497558594
▁that 0.2291259765625
▁the 0.230224609375
▁measurement 3.19140625
▁tool 1.80859375
▁used 1.71484375
▁capt 4.79296875
ures 0.0009226799011230469
▁all 2.771484375
▁relevant 1.744140625
▁aspects 0.740234375
▁of 0.1322021484375
▁job 0.279296875
▁satisfaction 0.031646728515625
▁accur 4.21484375
ately 0.002323150634765625
. 0.364501953125
▁Using 5.53125
▁a 0.77294921875
▁valid 2.671875
▁instrument 1.544921875
▁ens 2.1484375
ures 0.001251220703125
▁that 0.259521484375
▁the 0.6181640625
▁find 1.373046875
ings 0.0011615753173828125
▁a 5.5390625
▁are 1.51953125
▁true 4.58984375
▁representation 3.203125
▁of 0.1065673828125
▁the 0.38330078125
▁construct 3.31640625
▁being 1.55078125
▁studied 1.8037109375
. 0.455322265625
<0x0A> 0.34130859375
To 3.375
▁valid 3.34765625
ity 0.044036865234375
, 1.0693359375
▁establish 3.552734375
▁research 3.3984375
ers 0.41552734375
▁use 3.375
▁may 7.75390625
▁established 6.05859375
▁measurement 3.36328125
▁tools 1.8720703125
▁have 7.04296875
▁that 3.509765625
▁been 1.8828125
▁valid 2.150390625
ated 0.022705078125
. 2.59375
▁previously 11.390625
▁For 4.75
▁instance 1.5751953125
, 0.0159912109375
▁if 2.15234375
▁a 0.366943359375
▁research 0.5
er 0.07379150390625
▁is 0.98388671875
▁interested 3.072265625
▁meas 3.857421875
uring 0.0007381439208984375
▁in 4.05078125
▁de 3.87109375
pression 0.03564453125
, 0.654296875
▁they 0.8291015625
▁might 2.7890625
▁use 0.1737060546875
▁a 1.158203125
▁widely 3.353515625
▁used 1.8603515625
▁and 2.59765625
▁instrument 6.33203125
▁valid 0.50341796875
ated 0.01451873779296875
▁such 5.2421875
▁as 0.359619140625
▁the 0.127197265625
▁Beck 0.420654296875
▁De 0.09112548828125
pression 0.0004630088806152344
▁In 0.1678466796875
ventory 0.0110931396484375
. 0.45263671875
▁By 3.0078125
▁employ 4.72265625
ing 0.0044403076171875
▁such 3.9921875
▁instruments 2.8125
, 0.165283203125
▁research 0.260986328125
ers 0.01654052734375
▁can 0.56103515625
▁ensure 1.2041015625
▁that 0.382568359375
▁their 0.262451171875
▁collection 10.8828125
▁data 2.7890625
▁accur 2.736328125
ately 0.003574371337890625
▁tools 10.6015625
▁measure 2.197265625
▁the 0.96826171875
▁variables 3.05859375
▁of 0.4033203125
▁interest 0.10589599609375
, 1.853515625
▁leading 4.23828125
▁to 0.089111328125
▁valid 1.7841796875
▁more 9.5
▁results 3.080078125
. 0.0858154296875
<0x0A> 0.1402587890625
F 3.9921875
ur 0.0689697265625
ther 0.0017404556274414062
more 0.1864013671875
, 0.038787841796875
▁evalu 8.640625
ating 0.17236328125
▁the 0.7431640625
▁accuracy 3.076171875
▁of 0.34765625
▁research 1.318359375
▁data 1.708984375
▁is 0.580078125
▁cru 1.626953125
cial 0.000133514404296875
▁for 1.8232421875
▁establish 0.8076171875
ing 0.0257415771484375
▁valid 0.405029296875
ity 0.0079345703125
. 0.0389404296875
▁crit 13.2578125
ically 0.1446533203125
▁must 5.890625
▁Research 2.578125
ers 0.038116455078125
▁assess 2.88671875
▁their 2.69140625
▁data 0.99658203125
▁collection 4.3984375
▁techniques 2.353515625
, 1.4853515625
▁analysis 2.087890625
▁data 7.91796875
▁procedures 2.60546875
, 0.49609375
▁ensure 6.27734375
▁and 3.630859375
▁that 1.427734375
▁any 4.13671875
▁bi 2.673828125
ases 0.0027103424072265625
▁are 1.154296875
▁addressed 2.876953125
. 0.765625
▁For 1.505859375
▁example 0.779296875
, 0.01390838623046875
▁research 2.966796875
ers 0.201416015625
▁might 1.0908203125
▁perform 4.66015625
▁reli 3.642578125
ability 0.01090240478515625
▁inter 4.17578125
- 0.396484375
r 0.03033447265625
ater 0.000156402587890625
▁checks 3.955078125
▁to 0.60302734375
▁ensure 0.7060546875
▁consistent 4.69921875
▁interpretation 3.0546875
▁of 0.153564453125
▁qual 7.13671875
itative 0.0006108283996582031
▁data 0.10894775390625
, 2.392578125
▁or 0.345458984375
▁use 2.029296875
▁statistical 1.0380859375
▁tests 1.43359375
▁to 0.2193603515625
▁validate 2.97265625
▁their 1.5498046875
▁quant 1.287109375
itative 0.0006628036499023438
▁measurements 5.07421875
. 0.037322998046875
▁These 2.423828125
▁measures 1.9677734375
▁increase 3.916015625
▁the 0.3837890625
▁confidence 4.52734375
▁in 0.4013671875
▁the 0.201171875
▁valid 0.65771484375
ity 0.004230499267578125
▁of 0.11083984375
▁their 3.78125
▁find 0.7275390625
ings 0.00015211105346679688
. 0.7998046875
<0x0A> 0.0377197265625
In 1.1494140625
▁conclusion 0.44189453125
, 0.019561767578125
▁reli 0.4267578125
ability 0.0004119873046875
▁and 0.20263671875
▁valid 0.040283203125
ity 0.0007710456848144531
▁are 0.112060546875
▁vital 4.484375
▁in 1.9912109375
▁research 1.42578125
, 1.7607421875
▁particularly 4.8359375
▁when 1.427734375
▁meas 2.2265625
uring 0.0002105236053466797
▁the 3.25390625
▁relationship 4.98046875
▁between 0.1361083984375
▁independent 4.86328125
▁and 0.22802734375
▁dependent 0.045989990234375
▁Cons 16.375
ist 0.263671875
ency 0.0645751953125
▁variables 1.2529296875
. 0.1546630859375
▁of 6.953125
▁data 1.8759765625
▁and 1.95703125
▁research 2.59375
▁techniques 1.09375
▁ens 4.01953125
ures 0.310791015625
▁reli 2.302734375
ability 0.0017757415771484375
, 0.431884765625
▁for 8.5625
▁allowing 3.314453125
▁rep 2.2578125
lication 0.08349609375
▁and 1.8291015625
▁stable 8.34375
▁find 0.7255859375
ings 0.0003731250762939453
. 0.420166015625
▁Acc 4.65234375
ur 0.0007224082946777344
ate 1.0009765625
▁and 1.2890625
▁fact 2.1171875
ual 0.004177093505859375
▁research 3.134765625
▁data 0.8583984375
, 1.994140625
▁as 3.900390625
▁well 1.2900390625
▁the 4.8125
▁as 2.40234375
▁use 2.38671875
▁of 0.272216796875
▁valid 0.5576171875
ated 1.142578125
▁instruments 0.6396484375
, 0.406005859375
▁contribute 4.35546875
▁establish 5.2734375
ing 1.1767578125
▁to 2.5
▁valid 0.47412109375
ity 0.0146636962890625
. 0.6552734375
▁Research 2.642578125
ers 0.0211639404296875
▁must 0.444580078125
▁be 3.78515625
▁dil 2.62890625
igent 0.0173492431640625
▁in 0.33154296875
▁their 1.8740234375
▁approach 3.44921875
▁to 0.71923828125
▁ensure 1.10546875
▁that 1.064453125
▁their 0.358642578125
▁studies 2.875
▁have 4.234375
▁both 1.3125
▁reli 0.356689453125
ability 0.0010442733764648438
▁and 0.20947265625
▁valid 0.037139892578125
ity 0.0015773773193359375
▁in 4.08984375
▁order 0.472412109375
▁to 0.1026611328125
▁produce 1.0205078125
▁and 5.26171875
▁cred 3.109375
ible 0.00472259521484375
▁robust 6.1640625
▁results 1.298828125
. 0.04962158203125
