▁Although 8.3203125
▁some 4.72265625
▁people 2.28125
▁says 10.5
▁young 9.796875
▁people 1.025390625
▁should 2.0625
▁not 1.2353515625
▁enjoy 6.859375
▁life 2.3828125
▁more 7.13671875
▁than 0.71728515625
▁older 2.087890625
▁people 0.425537109375
▁do 2.9765625
, 0.30419921875
▁I 0.68798828125
▁agree 4.24609375
▁that 1.1103515625
▁young 0.6884765625
▁pe 6.5546875
ole 2.603515625
▁enjoy 4.00390625
▁life 0.39990234375
▁more 0.265625
▁than 0.6484375
▁older 0.302490234375
▁people 0.144287109375
▁do 0.51806640625
. 0.2349853515625
▁Because 4.9140625
▁of 1.7978515625
▁ 7.5234375
2 1.6650390625
▁reasons 0.7431640625
: 1.498046875
▁kn 14.2265625
ouw 9.4140625
ledge 0.330810546875
▁and 0.1715087890625
▁health 3.4765625
. 0.2171630859375
<0x0A> 0.37158203125
▁First 12.578125
▁of 1.0126953125
▁all 0.02191162109375
, 0.08489990234375
▁naturally 11.6328125
, 0.8779296875
▁young 0.5205078125
▁people 0.0799560546875
▁have 0.85595703125
▁more 0.32421875
▁less 7.79296875
▁knowledge 1.6943359375
▁than 0.59423828125
▁old 2.01953125
▁people 0.1807861328125
. 0.65771484375
▁For 2.419921875
▁example 0.268798828125
, 0.0897216796875
▁s 8.7421875
io 8.5703125
ci 6.01171875
ety 0.329345703125
, 2.1015625
▁some 7.03515625
▁act 9.4140625
ives 4.0703125
, 0.75537109375
▁and 2.109375
▁many 3.498046875
▁things 1.869140625
. 1.2392578125
▁Therefore 4.0234375
▁young 3.201171875
▁people 0.0657958984375
▁should 3.86328125
▁experience 5.19140625
▁many 3.458984375
▁things 0.4638671875
. 1.814453125
▁But 4.30078125
▁they 3.30078125
▁s 6.703125
ould 0.7978515625
n 1.5732421875
' 0.515625
t 0.039764404296875
▁aff 8.78125
raid 0.521484375
▁to 0.99365234375
▁fail 3.20703125
. 0.79248046875
▁They 2.609375
▁should 0.6083984375
▁enjoy 3.744140625
▁every 2.68359375
▁new 5.9375
▁experiences 4.26171875
. 0.72998046875
<0x0A> 0.92529296875
▁Second 1.7412109375
▁of 1.4560546875
▁all 0.02099609375
, 0.0249481201171875
▁generally 6.05859375
, 0.412109375
▁most 5.765625
▁of 1.2470703125
▁young 0.72802734375
▁people 0.07330322265625
▁have 1.353515625
▁health 1.828125
▁body 7.4296875
. 0.84375
▁And 3.419921875
▁in 4.87109375
▁future 5.25
, 0.376953125
▁we 4.93359375
▁need 3.087890625
▁to 1.40234375
▁keep 2.43359375
▁our 0.908203125
▁health 0.72998046875
▁so 5.0
▁people 5.80078125
▁who 3.048828125
▁can 3.888671875
▁move 6.33203125
▁their 3.203125
▁body 0.44140625
▁activity 8.7578125
- 8.1875
▁young 9.796875
▁people 0.173583984375
- 2.03515625
▁should 2.103515625
▁develop 7.53125
▁their 0.6455078125
▁health 1.82421875
. 0.97314453125
▁However 4.76953125
▁stress 12.015625
▁leads 6.02734375
▁people 3.53125
▁bad 5.3203125
▁condition 4.58203125
▁so 3.169921875
▁they 1.703125
▁should 0.8173828125
▁enjoy 2.59765625
▁life 1.1162109375
. 1.2734375
<0x0A> 0.27294921875
▁For 6.75
▁these 1.443359375
▁reasons 0.388427734375
, 0.1268310546875
▁I 0.76416015625
▁agree 1.888671875
▁that 0.318115234375
▁young 0.06048583984375
▁people 0.0565185546875
▁enjoy 0.283935546875
▁life 0.06982421875
▁than 4.06640625
▁older 0.3056640625
▁people 0.0643310546875
▁do 0.693359375
. 0.066162109375
