▁R 5.7109375
eli 4.48046875
ability 1.2353515625
▁is 3.18359375
▁the 1.62109375
▁extent 5.671875
▁to 0.036224365234375
▁which 0.0019235610961914062
▁a 0.60791015625
▁or 11.3359375
▁measurement 5.59765625
▁technique 5.5625
▁research 10.6953125
▁consist 5.5625
ently 0.04388427734375
▁the 5.75390625
▁yields 10.3046875
▁same 3.189453125
▁when 6.41796875
▁results 5.05859375
▁repeated 5.0625
. 0.8095703125
▁It 3.873046875
▁is 0.74951171875
▁cru 6.1484375
cial 0.0146636962890625
▁research 6.08984375
▁in 3.634765625
▁as 6.78515625
▁it 2.201171875
▁allows 2.6640625
▁for 2.43359375
▁the 1.7197265625
▁rep 2.984375
lication 0.11175537109375
▁of 0.359130859375
▁studies 2.568359375
▁and 1.1845703125
▁the 1.5966796875
▁confidence 4.4453125
▁in 0.8623046875
▁the 0.97119140625
▁stability 8.046875
▁of 0.3671875
▁find 2.4296875
ings 0.0012226104736328125
. 0.42138671875
▁Cons 7.45703125
ist 0.390380859375
ency 0.006160736083984375
▁of 2.03125
▁data 3.421875
▁is 1.2001953125
▁a 2.140625
▁key 1.7333984375
▁factor 2.369140625
▁in 0.469970703125
▁ach 5.76953125
ieving 0.0032138824462890625
▁For 11.125
▁reli 3.0546875
ability 0.004486083984375
. 3.267578125
▁example 9.296875
, 0.3076171875
▁if 1.833984375
▁a 1.0166015625
▁research 1.462890625
er 0.363525390625
▁is 2.59765625
▁conduct 2.7265625
ing 0.01226806640625
▁a 0.5302734375
▁survey 2.228515625
▁stress 11.8359375
▁meas 7.7109375
uring 0.040191650390625
▁levels 4.33203125
▁a 4.578125
▁population 3.08203125
, 0.93603515625
▁in 5.1171875
▁it 6.234375
▁is 0.95751953125
▁important 0.919921875
▁that 0.51220703125
▁the 0.8037109375
▁questions 3.97265625
▁are 1.2275390625
▁phr 3.171875
ased 0.007080078125
▁consist 2.177734375
ently 0.0282745361328125
▁and 1.578125
▁the 1.525390625
▁data 3.435546875
▁collection 2.853515625
▁process 2.0546875
▁remains 3.5546875
▁the 1.005859375
▁same 0.12548828125
. 1.1171875
▁In 3.228515625
cons 3.05078125
istent 1.0771484375
▁question 4.19140625
▁formatting 6.79296875
▁or 0.88720703125
▁variations 5.1484375
▁in 0.1815185546875
▁data 1.310546875
▁collection 0.10858154296875
▁methods 1.61328125
▁could 1.810546875
▁lead 1.576171875
▁to 0.109619140625
▁un 2.46875
re 0.06964111328125
li 0.001689910888671875
able 0.031829833984375
▁results 0.84228515625
, 2.9140625
▁weak 7.015625
ening 0.1220703125
▁valid 5.87109375
ity 0.0076141357421875
▁the 4.05078125
▁of 3.76953125
▁the 1.7607421875
▁study 0.83349609375
. 0.2073974609375
<0x0A> 0.87890625
Cons 5.01171875
ist 0.184814453125
ency 0.00482177734375
▁of 2.328125
▁research 2.65625
▁techniques 4.90625
▁is 0.80029296875
▁also 1.01953125
▁essential 3.2890625
▁establish 7.6015625
ing 0.69677734375
▁in 5.18359375
▁reli 1.7177734375
ability 0.004344940185546875
. 0.56396484375
▁Research 3.857421875
ers 0.66259765625
▁must 0.9931640625
▁use 2.060546875
▁procedures 5.4765625
▁standard 4.97265625
ized 0.74072265625
▁to 2.0234375
▁ensure 0.88623046875
▁consist 2.859375
ency 0.0197296142578125
▁across 3.341796875
▁For 6.6015625
▁studies 2.29296875
. 0.274658203125
▁instance 10.21875
, 0.0164794921875
▁in 3.6171875
▁an 2.6484375
▁experiment 0.1998291015625
▁testing 2.728515625
▁the 0.362548828125
▁of 4.546875
▁effect 5.08984375
▁a 2.98828125
▁new 2.0859375
▁drug 0.7197265625
▁on 0.63427734375
▁blood 2.60546875
▁it 7.83203125
▁pressure 4.5078125
, 0.58837890625
▁is 4.6953125
▁cru 3.40234375
cial 0.0009093284606933594
▁to 3.341796875
▁follow 2.8046875
▁a 2.15234375
▁standard 1.55859375
ized 0.466552734375
▁protocol 0.80078125
, 3.77734375
▁the 6.04296875
▁ens 4.50390625
uring 0.5087890625
▁administration 7.30859375
▁of 0.65283203125
▁drug 3.326171875
, 2.716796875
▁measurement 2.783203125
▁the 3.97265625
▁of 1.3544921875
▁blood 0.498291015625
▁pressure 0.288330078125
, 0.60888671875
▁and 0.155029296875
▁analysis 1.7509765625
▁data 3.115234375
▁procedures 5.87109375
▁consistent 5.05078125
. 0.4423828125
▁are 6.9375
▁This 3.892578125
▁consist 2.25390625
ency 0.0037689208984375
▁allows 2.50390625
▁for 0.9150390625
▁the 1.4931640625
▁comparison 1.3837890625
▁of 0.350830078125
▁find 2.60546875
ings 0.0016279220581054688
▁different 4.65625
▁across 2.875
▁studies 0.27685546875
, 0.837890625
▁strength 2.759765625
ening 0.009307861328125
▁reli 1.490234375
ability 0.0031642913818359375
▁the 1.55859375
▁of 1.197265625
▁the 0.81298828125
▁research 0.9453125
. 0.13037109375
<0x0A> 0.25439453125
Valid 5.1171875
ity 0.004741668701171875
, 3.408203125
▁on 1.7578125
▁the 0.08428955078125
▁other 0.13427734375
▁hand 0.2169189453125
, 0.02294921875
▁refers 1.267578125
▁to 0.34912109375
▁the 0.1810302734375
▁accuracy 1.44140625
▁and 1.517578125
▁fact 10.453125
ual 0.08099365234375
ness 2.16015625
▁of 0.398193359375
▁research 1.4541015625
▁data 3.291015625
▁and 2.7265625
▁instruments 9.9765625
. 0.26123046875
▁It 1.103515625
▁is 0.427001953125
▁the 1.373046875
▁extent 0.305419921875
▁to 0.0782470703125
▁which 0.041412353515625
▁a 0.9248046875
▁study 2.056640625
▁measures 1.1962890625
▁what 0.1566162109375
▁it 0.047698974609375
▁claims 1.69140625
▁to 0.10894775390625
▁measure 0.114501953125
. 0.77099609375
▁To 3.376953125
▁achieve 1.7001953125
▁valid 0.339111328125
ity 0.0055694580078125
, 0.452392578125
▁research 0.36474609375
ers 0.1654052734375
▁ensure 5.76953125
▁must 13.453125
▁that 0.97998046875
▁their 0.845703125
▁measurements 3.375
▁accur 2.154296875
ately 4.673004150390625e-05
▁represent 2.08984375
▁the 0.435302734375
▁variables 3.642578125
▁of 2.052734375
▁interest 0.321533203125
. 0.9091796875
▁For 0.60400390625
▁example 0.1790771484375
, 0.01129913330078125
▁if 1.3818359375
▁a 0.1605224609375
▁study 1.044921875
▁a 2.564453125
ims 0.1065673828125
▁to 0.10418701171875
▁measure 0.8759765625
▁job 4.65625
▁satisfaction 0.1627197265625
, 0.92431640625
▁it 1.515625
▁is 0.273193359375
▁imper 5.109375
ative 0.0003018379211425781
▁that 0.265869140625
▁measurement 6.3203125
▁the 2.34375
▁used 4.16015625
▁tool 4.62109375
▁capt 4.1328125
ures 0.001209259033203125
▁all 2.291015625
▁relevant 1.43359375
▁aspects 0.77490234375
▁of 0.258056640625
▁job 0.33349609375
▁accur 12.78125
ately 0.0007500648498535156
. 1.19921875
▁satisfaction 2.07421875
▁Using 8.640625
▁a 0.87451171875
▁valid 2.533203125
▁instrument 1.623046875
▁ens 2.05078125
ures 0.0022220611572265625
▁that 0.337646484375
▁find 2.107421875
ings 0.001010894775390625
▁the 2.35546875
▁are 1.130859375
▁a 6.24609375
▁true 2.0
▁representation 0.96044921875
▁of 0.14208984375
▁the 0.423095703125
▁construct 2.79296875
▁being 1.177734375
▁studied 1.5537109375
. 0.64111328125
<0x0A> 0.1842041015625
To 3.255859375
▁establish 2.103515625
▁valid 0.46337890625
ity 0.004299163818359375
, 0.3603515625
▁research 0.254638671875
ers 0.0194091796875
▁may 2.65625
▁use 0.47607421875
▁established 4.80859375
▁measurement 2.869140625
▁tools 1.32421875
▁that 2.962890625
▁have 0.078857421875
▁been 0.420166015625
▁previously 2.400390625
▁valid 0.58837890625
ated 0.00327301025390625
. 1.251953125
▁For 1.6025390625
▁instance 2.3984375
, 0.00788116455078125
▁if 2.529296875
▁a 0.1689453125
▁research 0.55419921875
er 0.050262451171875
▁is 0.84912109375
▁interested 1.732421875
▁in 0.10162353515625
▁meas 0.55908203125
uring 3.218650817871094e-05
▁de 2.470703125
pression 0.0243072509765625
, 0.440673828125
▁might 7.875
▁they 2.869140625
▁a 5.8359375
▁use 1.7294921875
▁widely 3.771484375
▁used 1.9296875
▁valid 3.30078125
ated 0.024993896484375
▁and 6.4453125
▁instrument 2.259765625
▁such 1.9697265625
▁as 0.2470703125
▁the 0.08050537109375
▁Beck 0.398193359375
▁De 0.1080322265625
pression 0.00029206275939941406
▁In 0.2147216796875
ventory 0.0154266357421875
. 0.70166015625
▁By 2.921875
▁employ 4.17578125
ing 0.0016107559204101562
▁such 3.11328125
▁instruments 2.39453125
, 0.1380615234375
▁research 0.292236328125
ers 0.01338958740234375
▁can 0.3896484375
▁ensure 1.0048828125
▁that 0.370361328125
▁their 0.318603515625
▁data 1.5673828125
▁collection 5.15625
▁tools 4.32421875
▁measure 3.25
▁accur 2.630859375
ately 0.0003998279571533203
▁the 1.056640625
▁variables 1.900390625
▁interest 5.26953125
, 1.9287109375
▁of 7.3515625
▁leading 4.09765625
▁to 0.09991455078125
▁more 2.173828125
▁valid 1.208984375
▁results 1.5478515625
. 0.0994873046875
<0x0A> 0.2646484375
F 3.349609375
ur 0.03179931640625
ther 0.0008425712585449219
more 0.0965576171875
, 0.01513671875
▁the 3.724609375
▁evalu 9.1796875
ating 0.312255859375
▁accuracy 4.7109375
▁of 0.7294921875
▁data 2.037109375
▁research 5.41015625
▁is 1.708984375
▁cru 1.470703125
cial 0.0001881122589111328
▁for 1.4365234375
▁establish 0.9375
ing 0.01418304443359375
▁valid 0.50439453125
ity 0.004627227783203125
. 0.1312255859375
▁Research 1.4375
ers 0.0196075439453125
▁must 0.7275390625
▁crit 5.578125
ically 0.00017976760864257812
▁assess 1.94140625
▁data 2.28125
▁their 4.8203125
▁collection 3.072265625
▁techniques 3.1484375
, 2.025390625
▁data 4.9609375
▁analysis 0.9345703125
▁procedures 1.1455078125
, 0.130615234375
▁and 0.04290771484375
▁ensure 7.37890625
▁that 0.75390625
▁any 3.603515625
▁bi 4.015625
ases 0.0015211105346679688
▁are 1.5322265625
▁addressed 2.509765625
. 0.5888671875
▁For 1.0185546875
▁example 0.440673828125
, 0.007175445556640625
▁research 2.794921875
ers 0.1378173828125
▁might 1.3623046875
▁perform 4.7890625
▁inter 3.732421875
- 0.7587890625
r 0.02618408203125
ater 2.1338462829589844e-05
▁reli 0.056060791015625
ability 0.004108428955078125
▁checks 1.787109375
▁ensure 5.4921875
▁to 5.53515625
▁consistent 5.55078125
▁interpretation 3.95703125
▁of 0.53466796875
▁qual 7.08203125
itative 0.0003247261047363281
▁data 0.127685546875
, 2.232421875
▁use 6.9453125
▁or 5.40625
▁statistical 2.09375
▁tests 1.9501953125
▁to 0.458984375
▁validate 3.197265625
▁their 2.77734375
▁measurements 4.578125
. 2.60546875
▁quant 4.2109375
itative 0.01128387451171875
▁These 4.31640625
▁measures 1.65625
▁increase 4.0390625
▁the 0.55810546875
▁confidence 4.62890625
▁in 0.455322265625
▁the 0.332763671875
▁valid 0.60302734375
ity 0.0016088485717773438
▁of 0.467529296875
▁their 4.1015625
▁find 0.6884765625
ings 8.594989776611328e-05
. 0.572265625
<0x0A> 0.1142578125
In 1.0087890625
▁conclusion 0.50830078125
, 0.013641357421875
▁reli 0.35791015625
ability 0.00023317337036132812
▁and 0.2222900390625
▁valid 0.049713134765625
ity 0.00029921531677246094
▁are 0.1502685546875
▁vital 4.828125
▁in 2.025390625
▁particularly 14.7421875
▁research 1.58203125
, 2.732421875
▁when 4.94140625
▁meas 4.06640625
uring 0.0006690025329589844
▁the 2.365234375
▁relationship 4.91015625
▁between 0.2059326171875
▁independent 3.97265625
▁and 0.311767578125
▁dependent 0.281005859375
▁Cons 14.7109375
ist 0.279296875
ency 0.0296783447265625
▁variables 1.470703125
. 0.27001953125
▁of 3.841796875
▁and 2.6015625
▁data 2.138671875
▁research 4.01953125
▁techniques 2.2734375
▁ens 3.818359375
ures 0.1654052734375
▁reli 1.9501953125
ability 0.00157928466796875
, 0.67236328125
▁allowing 4.1015625
▁for 0.52685546875
▁and 5.73828125
▁rep 1.779296875
lication 0.179443359375
▁find 2.162109375
ings 0.0015726089477539062
. 1.8896484375
▁stable 10.21875
▁Acc 7.80859375
ur 0.0006518363952636719
ate 0.77978515625
▁and 0.90380859375
▁fact 1.634765625
ual 0.005535125732421875
▁data 0.919921875
, 1.8505859375
▁research 5.6015625
▁as 6.82421875
▁well 1.310546875
▁as 0.2373046875
▁the 1.7109375
▁use 2.33984375
▁of 0.249755859375
▁valid 0.95703125
ated 0.52392578125
▁instruments 0.841796875
, 0.72802734375
▁contribute 3.544921875
▁establish 5.47265625
ing 0.57373046875
▁to 1.3134765625
▁valid 0.626953125
ity 0.005580902099609375
. 1.189453125
▁Research 3.1171875
ers 0.0175323486328125
▁must 0.30029296875
▁be 2.861328125
▁dil 1.8046875
igent 0.009613037109375
▁in 0.288818359375
▁their 1.6865234375
▁approach 2.71484375
▁ensure 3.49609375
▁to 1.349609375
▁that 4.1796875
▁their 1.46875
▁studies 3.2734375
▁have 3.669921875
▁both 0.88525390625
▁reli 0.4580078125
ability 0.0006699562072753906
▁and 0.1715087890625
▁valid 0.04833984375
ity 0.000896453857421875
▁in 3.9375
▁order 0.29736328125
▁to 0.1717529296875
▁produce 1.0224609375
▁robust 3.6875
▁and 0.78173828125
▁cred 2.6015625
ible 0.001201629638671875
▁results 1.328125
. 0.04156494140625
