▁R 10.375
eli 7.8984375
ability 1.3798828125
▁is 4.14453125
▁the 3.0234375
▁extent 5.76171875
▁to 0.2281494140625
▁which 0.038116455078125
▁a 1.01171875
▁or 9.09375
▁measurement 10.4609375
▁technique 5.93359375
▁research 8.25
▁consist 8.109375
ently 3.28515625
▁the 4.07421875
▁yields 10.0078125
▁same 7.58203125
▁when 6.6171875
▁results 6.1875
▁repeated 7.046875
. 4.1328125
▁It 3.98828125
▁is 1.0263671875
▁cru 8.1171875
cial 0.0484619140625
▁research 5.58203125
▁in 4.03125
▁as 6.22265625
▁it 2.486328125
▁allows 4.57421875
▁for 1.849609375
▁the 1.4833984375
▁rep 5.6015625
lication 0.1285400390625
▁of 0.369384765625
▁studies 3.861328125
▁and 1.6435546875
▁the 1.6748046875
▁confidence 8.4140625
▁in 1.177734375
▁the 0.9375
▁stability 9.09375
▁of 0.30859375
▁find 2.28515625
ings 0.003143310546875
. 0.5087890625
▁Cons 6.54296875
ist 0.228759765625
ency 0.2230224609375
▁of 1.927734375
▁data 4.18359375
▁is 1.8369140625
▁a 2.423828125
▁key 1.953125
▁factor 2.044921875
▁in 0.69287109375
▁ach 5.1484375
ieving 0.0007076263427734375
▁For 14.0078125
▁reli 5.90625
ability 0.03436279296875
. 5.0
▁example 8.6640625
, 0.375732421875
▁if 3.150390625
▁a 1.4140625
▁research 2.712890625
er 0.476318359375
▁is 2.193359375
▁conduct 3.267578125
ing 0.006317138671875
▁a 0.525390625
▁survey 3.015625
▁stress 11.328125
▁meas 8.90625
uring 0.0859375
▁levels 6.19921875
▁a 6.47265625
▁population 7.38671875
, 1.8779296875
▁in 5.265625
▁it 6.27734375
▁is 0.75
▁important 1.1611328125
▁that 1.201171875
▁the 0.82958984375
▁questions 3.482421875
▁are 1.5478515625
▁phr 5.0859375
ased 0.0196685791015625
▁consist 2.2578125
ently 0.027069091796875
▁and 2.275390625
▁the 1.576171875
▁data 2.529296875
▁collection 3.041015625
▁process 1.9658203125
▁remains 4.5078125
▁the 0.767578125
▁same 0.08575439453125
. 0.9580078125
▁In 3.23828125
cons 4.859375
istent 1.361328125
▁question 3.50390625
▁formatting 7.625
▁or 1.81640625
▁variations 6.81640625
▁in 0.483154296875
▁data 1.8818359375
▁collection 0.179443359375
▁methods 2.44140625
▁could 2.95703125
▁lead 1.3818359375
▁to 0.0679931640625
▁un 4.16796875
re 0.06317138671875
li 0.004558563232421875
able 0.1231689453125
▁results 1.1298828125
, 3.046875
▁weak 6.60546875
ening 1.5439453125
▁valid 5.5546875
ity 0.1268310546875
▁the 6.26953125
▁of 5.0234375
▁the 0.970703125
▁study 1.3388671875
. 0.39697265625
<0x0A> 3.544921875
Cons 4.08984375
ist 0.147216796875
ency 0.012176513671875
▁of 0.92626953125
▁research 3.1796875
▁techniques 3.22265625
▁is 1.1162109375
▁also 1.6748046875
▁essential 2.939453125
▁establish 9.28125
ing 0.5986328125
▁in 4.8125
▁reli 5.29296875
ability 0.037353515625
. 0.408935546875
▁Research 3.171875
ers 1.673828125
▁must 1.6875
▁use 2.17578125
▁procedures 5.0
▁standard 7.02734375
ized 0.7744140625
▁to 2.068359375
▁ensure 2.1484375
▁consist 2.3359375
ency 0.039794921875
▁across 2.2890625
▁For 7.0234375
▁studies 4.01953125
. 1.2802734375
▁instance 7.53515625
, 0.2017822265625
▁in 2.61328125
▁an 4.09765625
▁experiment 0.9072265625
▁testing 7.015625
▁the 0.68505859375
▁of 9.5546875
▁effect 3.70703125
▁a 5.46875
▁new 4.88671875
▁drug 2.93359375
▁on 2.466796875
▁blood 5.453125
▁it 7.78125
▁pressure 9.2421875
, 0.8134765625
▁is 6.11328125
▁cru 3.447265625
cial 0.004108428955078125
▁to 1.392578125
▁follow 4.0859375
▁a 1.4892578125
▁standard 1.2470703125
ized 0.81787109375
▁protocol 2.341796875
, 2.626953125
▁the 4.22265625
▁ens 9.421875
uring 0.10870361328125
▁administration 10.0625
▁of 0.46875
▁drug 4.0546875
, 2.03125
▁measurement 4.8828125
▁the 5.28515625
▁of 2.720703125
▁blood 3.0078125
▁pressure 0.192626953125
, 1.3671875
▁and 0.75439453125
▁analysis 4.109375
▁data 6.30859375
▁procedures 4.74609375
▁consistent 5.75
. 3.685546875
▁are 5.51171875
▁This 9.1953125
▁consist 2.916015625
ency 0.00821685791015625
▁allows 2.40625
▁for 0.7548828125
▁the 1.080078125
▁comparison 3.11328125
▁of 0.311767578125
▁find 3.234375
ings 0.0110931396484375
▁different 8.1171875
▁across 5.94921875
▁studies 0.47265625
, 1.6064453125
▁strength 6.05859375
ening 0.1265869140625
▁reli 2.5703125
ability 0.0207366943359375
▁the 3.0390625
▁of 1.666015625
▁the 1.6708984375
▁research 2.59765625
. 0.91357421875
<0x0A> 0.96044921875
Valid 5.2734375
ity 0.0203399658203125
, 3.5546875
▁on 3.365234375
▁the 0.034698486328125
▁other 0.056243896484375
▁hand 0.060089111328125
, 0.0239410400390625
▁refers 1.564453125
▁to 0.045135498046875
▁the 0.417236328125
▁accuracy 3.58984375
▁and 1.87890625
▁fact 7.44921875
ual 0.2919921875
ness 1.5107421875
▁of 0.139404296875
▁research 1.953125
▁data 2.2890625
▁and 2.521484375
▁instruments 7.890625
. 0.716796875
▁It 2.619140625
▁is 0.7080078125
▁the 2.015625
▁extent 2.3125
▁to 0.11761474609375
▁which 0.08770751953125
▁a 1.5361328125
▁study 1.5244140625
▁measures 4.08203125
▁what 1.0
▁it 0.125732421875
▁claims 0.7333984375
▁to 0.134033203125
▁measure 0.1629638671875
. 0.6826171875
▁To 4.14453125
▁achieve 1.568359375
▁valid 0.71435546875
ity 0.0237884521484375
, 0.2763671875
▁research 0.767578125
ers 0.311279296875
▁ensure 4.203125
▁must 12.7109375
▁that 4.671875
▁their 1.5625
▁measurements 4.26953125
▁accur 3.962890625
ately 9.441375732421875e-05
▁represent 1.6337890625
▁the 0.7021484375
▁variables 4.2109375
▁of 2.162109375
▁interest 0.492431640625
. 1.3828125
▁For 2.16015625
▁example 0.5205078125
, 0.0079803466796875
▁if 1.287109375
▁a 0.67724609375
▁study 1.36328125
▁a 3.740234375
ims 0.58447265625
▁to 0.08349609375
▁measure 0.7294921875
▁job 7.34765625
▁satisfaction 0.2880859375
, 0.64697265625
▁it 1.8359375
▁is 1.5771484375
▁imper 4.23046875
ative 0.0026950836181640625
▁that 0.25
▁measurement 5.15234375
▁the 2.740234375
▁used 8.640625
▁tool 7.15625
▁capt 5.2734375
ures 0.00811767578125
▁all 3.724609375
▁relevant 3.3203125
▁aspects 2.33203125
▁of 0.1767578125
▁job 0.85107421875
▁accur 10.7265625
ately 9.28640365600586e-05
. 2.861328125
▁satisfaction 7.91796875
▁Using 12.015625
▁a 1.4912109375
▁valid 1.3466796875
▁instrument 1.8544921875
▁ens 2.294921875
ures 0.00359344482421875
▁that 0.337158203125
▁find 3.287109375
ings 0.0009613037109375
▁the 4.52734375
▁are 1.9150390625
▁a 5.07421875
▁true 1.181640625
▁representation 1.220703125
▁of 0.05096435546875
▁the 0.51416015625
▁construct 4.19921875
▁being 1.9052734375
▁studied 1.6357421875
. 0.341064453125
<0x0A> 0.95068359375
To 4.140625
▁establish 3.865234375
▁valid 0.2301025390625
ity 0.005218505859375
, 0.2191162109375
▁research 0.34521484375
ers 0.046295166015625
▁may 4.0625
▁use 1.48828125
▁established 6.1015625
▁measurement 3.517578125
▁tools 2.12109375
▁that 2.470703125
▁have 0.61767578125
▁been 0.431396484375
▁previously 3.712890625
▁valid 0.91796875
ated 0.007442474365234375
. 1.1513671875
▁For 2.27734375
▁instance 1.943359375
, 0.006931304931640625
▁if 2.173828125
▁a 0.347900390625
▁research 1.1484375
er 0.1248779296875
▁is 0.413818359375
▁interested 3.130859375
▁in 0.06719970703125
▁meas 1.1953125
uring 0.0003566741943359375
▁de 6.95703125
pression 0.03717041015625
, 0.5068359375
▁might 8.125
▁they 5.796875
▁a 7.7578125
▁use 2.294921875
▁widely 7.3359375
▁used 0.81103515625
▁valid 2.978515625
ated 0.50439453125
▁and 4.73046875
▁instrument 7.64453125
▁such 2.8125
▁as 0.09130859375
▁the 0.204345703125
▁Beck 1.6455078125
▁De 0.262939453125
pression 0.004634857177734375
▁In 0.529296875
ventory 0.01349639892578125
. 1.5322265625
▁By 5.4140625
▁employ 4.64453125
ing 0.001285552978515625
▁such 3.638671875
▁instruments 3.20703125
, 0.27197265625
▁research 0.84033203125
ers 0.0528564453125
▁can 1.50390625
▁ensure 1.1748046875
▁that 0.39404296875
▁their 1.0400390625
▁data 2.453125
▁collection 4.56640625
▁tools 3.546875
▁measure 2.8125
▁accur 3.490234375
ately 0.00016558170318603516
▁the 1.6181640625
▁variables 1.66796875
▁interest 5.5703125
, 2.173828125
▁of 7.62890625
▁leading 10.9921875
▁to 0.65576171875
▁more 2.8828125
▁valid 1.568359375
▁results 1.7353515625
. 0.1900634765625
<0x0A> 0.91357421875
F 4.03515625
ur 0.429931640625
ther 0.00015878677368164062
more 0.4150390625
, 0.00797271728515625
▁the 3.267578125
▁evalu 8.40625
ating 1.357421875
▁accuracy 5.0546875
▁of 0.5
▁data 2.3046875
▁research 6.48828125
▁is 3.5390625
▁cru 3.041015625
cial 0.004314422607421875
▁for 2.576171875
▁establish 1.6796875
ing 0.007717132568359375
▁valid 0.493408203125
ity 0.01128387451171875
. 0.58642578125
▁Research 2.560546875
ers 0.1658935546875
▁must 0.94384765625
▁crit 6.9140625
ically 0.0027637481689453125
▁assess 3.05859375
▁data 2.4765625
▁their 6.91796875
▁collection 4.5390625
▁techniques 3.455078125
, 1.7607421875
▁data 3.748046875
▁analysis 2.236328125
▁procedures 1.48046875
, 0.258056640625
▁and 0.3525390625
▁ensure 7.484375
▁that 0.51611328125
▁any 4.77734375
▁bi 4.51171875
ases 0.034881591796875
▁are 1.6767578125
▁addressed 3.25
. 0.841796875
▁For 1.935546875
▁example 0.8935546875
, 0.0048980712890625
▁research 2.58984375
ers 0.1910400390625
▁might 2.638671875
▁perform 4.6953125
▁inter 5.62890625
- 2.068359375
r 0.350341796875
ater 0.00015437602996826172
▁reli 0.0960693359375
ability 0.01097869873046875
▁checks 3.482421875
▁ensure 8.1171875
▁to 5.9921875
▁consistent 9.671875
▁interpretation 3.828125
▁of 0.374755859375
▁qual 7.15234375
itative 0.003490447998046875
▁data 0.4619140625
, 1.9150390625
▁use 5.6484375
▁or 5.6640625
▁statistical 3.99609375
▁tests 2.048828125
▁to 0.2783203125
▁validate 3.01171875
▁their 1.7177734375
▁measurements 5.0390625
. 1.330078125
▁quant 8.46875
itative 0.032196044921875
▁These 9.34375
▁measures 2.64453125
▁increase 5.84375
▁the 0.483154296875
▁confidence 4.11328125
▁in 0.763671875
▁the 0.703125
▁valid 1.0576171875
ity 0.004573822021484375
▁of 0.366943359375
▁their 2.482421875
▁find 1.2841796875
ings 0.0020542144775390625
. 0.5693359375
<0x0A> 0.5986328125
In 3.005859375
▁conclusion 2.2578125
, 0.00958251953125
▁reli 1.5126953125
ability 0.0036220550537109375
▁and 0.128662109375
▁valid 0.03375244140625
ity 0.00177001953125
▁are 0.409912109375
▁vital 4.58203125
▁in 2.609375
▁particularly 13.5546875
▁research 2.79296875
, 2.244140625
▁when 4.92578125
▁meas 3.13671875
uring 0.0021305084228515625
▁the 2.3203125
▁relationship 4.96875
▁between 0.440185546875
▁independent 4.73828125
▁and 0.5263671875
▁dependent 0.1832275390625
▁Cons 13.671875
ist 0.09918212890625
ency 0.00927734375
▁variables 2.80078125
. 0.53857421875
▁of 5.9765625
▁and 6.1640625
▁data 4.81640625
▁research 6.98828125
▁techniques 3.416015625
▁ens 7.15625
ures 0.89501953125
▁reli 4.91796875
ability 0.0172576904296875
, 1.9208984375
▁allowing 5.06640625
▁for 0.6865234375
▁and 6.2265625
▁rep 6.0546875
lication 0.394287109375
▁find 5.26171875
ings 0.0015115737915039062
. 1.8046875
▁stable 9.78125
▁Acc 14.0
ur 0.004913330078125
ate 2.021484375
▁and 2.875
▁fact 0.9091796875
ual 0.01345062255859375
▁data 1.44921875
, 2.103515625
▁research 3.1953125
▁as 6.9453125
▁well 2.29296875
▁as 0.290771484375
▁the 2.14453125
▁use 4.484375
▁of 0.400146484375
▁valid 0.828125
ated 2.736328125
▁instruments 1.650390625
, 2.57421875
▁contribute 6.62890625
▁establish 6.28515625
ing 0.338134765625
▁to 1.99609375
▁valid 0.8349609375
ity 0.069580078125
. 0.69921875
▁Research 4.84765625
ers 1.6142578125
▁must 2.302734375
▁be 2.763671875
▁dil 4.69921875
igent 0.01172637939453125
▁in 0.51904296875
▁their 1.72265625
▁approach 3.333984375
▁ensure 4.97265625
▁to 2.158203125
▁that 4.87890625
▁their 1.0703125
▁studies 3.931640625
▁have 3.884765625
▁both 3.345703125
▁reli 2.18359375
ability 0.0050811767578125
▁and 0.1826171875
▁valid 0.301025390625
ity 0.03021240234375
▁in 3.9609375
▁order 1.4228515625
▁to 0.261962890625
▁produce 3.98828125
▁robust 5.1015625
▁and 1.2958984375
▁cred 2.896484375
ible 0.006561279296875
▁results 0.953125
. 0.171875
