▁Introduction 7.8203125
<0x0A> 4.00390625
Te 6.89453125
en 2.560546875
age 1.3251953125
▁is 3.0234375
▁suic 13.8515625
ide 0.81494140625
▁a 5.5859375
▁pressing 7.66796875
▁issue 0.931640625
▁requires 9.6875
▁that 4.95703125
▁the 2.240234375
▁collect 9.328125
ive 0.038787841796875
▁efforts 1.76171875
▁of 0.30517578125
▁teachers 5.3125
▁and 2.34375
▁parents 0.66162109375
▁to 2.85546875
▁address 3.5078125
▁effectively 5.43359375
. 0.58544921875
▁Ad 5.234375
oles 0.0312042236328125
c 0.25634765625
ence 0.80029296875
▁is 0.341552734375
▁a 0.485107421875
▁of 12.0078125
▁period 3.47265625
▁vulner 5.7734375
ability 0.22802734375
, 1.6826171875
▁and 2.380859375
▁by 6.34765625
▁working 6.38671875
▁together 0.429931640625
, 0.88671875
▁teachers 1.6240234375
▁and 0.138671875
▁parents 0.035491943359375
▁can 0.255615234375
▁fost 5.82421875
er 0.0014972686767578125
▁a 1.212890625
▁support 1.8955078125
ive 0.0259552001953125
▁environment 0.4658203125
▁prom 8.1171875
otes 1.916015625
▁that 6.32421875
▁mental 4.2265625
▁well 1.8623046875
- 0.79052734375
be 0.01058197021484375
ing 0.0001481771469116211
▁and 1.9873046875
▁prevents 3.314453125
▁te 2.41015625
en 0.046783447265625
age 0.4873046875
▁suic 0.0750732421875
ide 0.10064697265625
. 0.2142333984375
▁This 2.75
▁ess 1.4228515625
ay 0.0028095245361328125
▁will 0.64111328125
▁explore 1.5869140625
▁recommend 7.9609375
ations 0.02813720703125
▁for 0.69482421875
▁collaboration 5.63671875
▁between 0.260986328125
▁teachers 0.40185546875
▁and 0.0287628173828125
▁and 8.3984375
▁parents 0.1859130859375
▁discuss 7.67578125
▁strateg 2.880859375
ies 0.001556396484375
▁for 0.70751953125
▁effectively 4.921875
▁communic 2.080078125
ating 0.00905609130859375
▁at 7.6171875
- 2.744140625
ris 0.007472991943359375
k 0.0004172325134277344
▁with 6.953125
▁te 2.26953125
en 0.256591796875
agers 0.685546875
. 1.45703125
<0x0A> 0.9853515625
Re 2.96484375
comm 0.06390380859375
end 0.0213775634765625
ations 0.11322021484375
▁for 0.09564208984375
▁Coll 0.6552734375
abor 0.0004391670227050781
ation 0.050140380859375
<0x0A> 1.765625
1 4.5
. 0.1884765625
▁Open 3.376953125
▁Est 11.15625
ab 0.04632568359375
lish 0.1561279296875
▁Ch 9.109375
annels 0.005298614501953125
▁of 0.254150390625
▁Communic 0.07061767578125
ation 0.01629638671875
: 1.890625
<0x0A> 1.1474609375
B 5.3125
oth 0.499267578125
▁and 4.28125
▁parents 0.9296875
▁teachers 5.484375
▁need 2.294921875
▁initi 9.6484375
ate 0.11907958984375
▁to 5.1015625
▁and 4.4765625
▁open 1.888671875
▁on 5.9765625
going 0.140380859375
▁to 4.20703125
▁communication 1.193359375
▁ensure 6.99609375
▁a 4.59375
▁hol 5.140625
istic 0.0014591217041015625
▁understanding 1.4599609375
▁of 0.382080078125
▁student 2.75
' 2.849609375
s 0.0071868896484375
▁a 8.34375
▁emot 4.1953125
ional 0.0181121826171875
▁well 1.2138671875
- 0.1632080078125
be 0.0083160400390625
ing 0.0022830963134765625
. 0.358154296875
▁Te 2.357421875
ach 0.04449462890625
ers 0.0016651153564453125
▁can 0.84912109375
▁organ 6.70703125
ize 0.115478515625
▁meet 2.9921875
ings 0.007232666015625
▁and 3.111328125
▁con 3.34765625
ferences 0.0009946823120117188
, 2.953125
▁parent 4.94921875
- 0.509765625
te 0.0175628662109375
acher 0.00628662109375
▁allowing 11.3203125
▁them 2.646484375
▁to 0.2978515625
▁share 1.0703125
▁their 2.53515625
▁concerns 0.68896484375
▁and 0.75927734375
▁ins 3.408203125
ights 0.0005645751953125
▁about 1.8369140625
▁a 2.041015625
▁behavior 5.57421875
▁student 4.36328125
' 1.3544921875
s 0.0072174072265625
▁and 2.00390625
▁academic 3.70703125
▁performance 0.61376953125
. 0.2890625
▁Similarly 3.724609375
, 0.0377197265625
▁parents 0.384033203125
▁should 1.8798828125
▁act 3.947265625
ively 0.00843048095703125
▁eng 1.5439453125
age 0.016876220703125
▁with 1.5107421875
▁teachers 0.88916015625
, 2.1015625
▁their 6.83203125
▁valu 11.1171875
ing 0.26416015625
▁observations 6.7265625
▁and 0.51904296875
▁seeking 4.1640625
▁their 3.208984375
▁guidance 2.154296875
▁in 2.42578125
▁ident 4.8671875
ifying 0.0008778572082519531
▁signs 3.5546875
▁of 0.401611328125
▁dist 1.6142578125
ress 0.00045800209045410156
. 0.890625
<0x0A> 0.80908203125
2 0.1146240234375
. 0.0294647216796875
▁En 5.125
hanced 4.5234375
▁M 5.33203125
ental 0.0257415771484375
▁Education 6.4921875
: 0.43896484375
<0x0A> 0.03338623046875
Par 3.267578125
ents 0.0012645721435546875
▁Health 11.3046875
▁and 2.1015625
▁must 5.25
▁teachers 3.978515625
▁to 4.24609375
▁collabor 3.236328125
ate 0.043243408203125
▁advoc 6.83984375
ate 0.150634765625
▁for 0.56591796875
▁en 2.517578125
hanced 0.0237274169921875
▁mental 0.33447265625
▁health 0.8779296875
▁education 0.27392578125
▁in 0.8388671875
▁schools 0.27294921875
. 0.46875
▁An 6.21484375
▁inclus 4.21484375
ive 0.002750396728515625
▁curr 0.6806640625
icul 0.004894256591796875
um 0.0006036758422851562
▁include 5.65234375
▁should 4.5625
▁teaching 4.67578125
▁students 2.787109375
▁about 0.80029296875
▁their 6.1171875
▁emot 1.103515625
ions 0.6328125
, 0.53759765625
▁cop 1.685546875
ing 0.0002396106719970703
▁mechan 2.076171875
isms 0.0013399124145507812
, 0.458251953125
▁and 0.23583984375
▁how 2.08203125
▁to 0.2373046875
▁stress 11.2421875
. 2.822265625
▁manage 11.9609375
▁By 4.90234375
▁health 10.0703125
▁including 5.8359375
▁mental 2.67578125
▁discuss 6.375
ions 1.2568359375
▁as 5.5390625
▁a 1.853515625
▁regular 2.23046875
▁part 0.343994140625
▁of 0.110107421875
▁the 1.060546875
▁education 3.658203125
▁process 2.150390625
, 0.173583984375
▁teachers 1.75
▁both 8.5859375
▁and 0.521484375
▁help 5.5859375
▁parents 0.439208984375
▁to 1.4794921875
▁convers 10.25
ations 0.035858154296875
▁normal 6.57421875
ize 0.07318115234375
▁around 3.87109375
▁mental 0.9150390625
▁health 0.417236328125
▁and 1.970703125
▁provide 3.669921875
▁students 2.447265625
▁with 0.2509765625
▁important 4.828125
▁information 2.810546875
▁on 2.861328125
▁how 0.54296875
▁to 0.15869140625
▁seek 1.140625
▁help 0.48095703125
. 1.4033203125
<0x0A> 0.05133056640625
3 0.060302734375
. 0.01544189453125
▁Enc 3.8125
ou 0.0006937980651855469
rage 0.17041015625
▁an 5.5078125
▁In 3.08203125
clus 0.056060791015625
ive 0.0009446144104003906
▁Class 2.947265625
room 0.01410675048828125
▁Environment 0.66259765625
: 0.04876708984375
<0x0A> 0.006786346435546875
T 1.7373046875
each 0.02752685546875
ers 0.0185546875
▁can 3.541015625
▁work 3.09765625
▁towards 4.703125
▁fost 1.966796875
ering 0.0211334228515625
▁an 0.5166015625
▁inclus 0.260009765625
ive 0.0003838539123535156
▁and 2.533203125
▁support 0.89013671875
ive 0.0024394989013671875
▁class 0.515625
room 0.00958251953125
▁environment 0.2291259765625
▁that 1.6044921875
▁prom 1.3701171875
otes 0.002628326416015625
▁mental 1.208984375
▁well 0.54736328125
- 0.1365966796875
be 0.00547027587890625
ing 0.00037360191345214844
. 0.666015625
▁By 2.24609375
▁prevent 8.125
ing 0.1514892578125
▁bul 1.275390625
lying 0.00247955322265625
▁and 0.689453125
▁creating 1.828125
▁a 0.58349609375
▁safe 0.890625
▁space 0.3388671875
▁for 0.33447265625
▁students 0.7294921875
▁to 0.1563720703125
▁themselves 10.875
, 2.2421875
▁teachers 0.71630859375
▁express 8.3203125
▁can 2.578125
▁contribute 4.84375
▁significantly 4.1796875
▁to 0.6884765625
▁reducing 1.943359375
▁the 0.87939453125
▁risk 0.2998046875
▁of 0.09320068359375
▁te 0.9169921875
en 0.0007710456848144531
age 0.046722412109375
▁suic 0.146728515625
ide 0.01214599609375
. 0.04888916015625
▁Inform 9.8515625
ing 1.7880859375
▁parents 1.234375
▁about 1.3125
▁the 1.421875
▁steps 3.169921875
▁taken 1.330078125
▁to 0.693359375
▁maintain 3.896484375
▁an 1.8369140625
▁class 8.9140625
room 0.03759765625
▁inclus 1.31640625
ive 0.0026569366455078125
▁will 4.66015625
▁ensure 3.779296875
▁help 7.32421875
▁consist 9.8671875
ency 0.04486083984375
▁and 1.275390625
▁collaboration 2.912109375
▁between 1.4990234375
▁home 2.671875
▁and 0.1268310546875
▁school 0.2127685546875
. 0.153076171875
<0x0A> 0.037353515625
4 0.42138671875
. 0.0092315673828125
▁Early 3.51171875
▁Ident 1.404296875
ification 0.02655029296875
▁and 1.138671875
▁Inter 0.277587890625
vention 0.01383209228515625
: 0.07550048828125
<0x0A> 0.0095672607421875
T 1.6220703125
each 0.0433349609375
ers 0.0086517333984375
▁and 0.5625
▁parents 0.286865234375
▁should 0.875
▁to 4.5390625
▁collabor 1.9609375
ate 0.032867431640625
▁identify 2.80078125
▁warning 4.421875
▁signs 0.1103515625
▁and 2.03515625
▁risk 2.8125
▁factors 0.11370849609375
▁associated 2.703125
▁with 0.06414794921875
▁suic 2.30859375
ide 0.3359375
, 2.869140625
▁te 7.4765625
en 0.0175323486328125
age 0.201904296875
▁such 2.103515625
▁as 0.050933837890625
▁withdraw 3.45703125
al 0.03216552734375
▁from 1.908203125
▁activities 1.69921875
, 0.2197265625
▁social 4.21484375
▁decl 8.2265625
ining 3.294921875
▁or 3.94140625
▁academic 2.32421875
▁performance 0.268310546875
, 0.39453125
▁sudden 6.08984375
▁m 1.6669921875
ood 0.0001900196075439453
▁sw 1.83203125
ings 1.6450881958007812e-05
. 4.01953125
▁Te 4.89453125
ach 0.03662109375
ers 0.0026035308837890625
, 4.15625
▁with 4.0546875
▁their 2.884765625
▁regular 3.724609375
▁interactions 1.23046875
▁with 0.1632080078125
▁students 0.298095703125
, 0.1353759765625
▁can 1.2802734375
▁act 4.26171875
▁as 0.412353515625
▁the 1.3359375
▁first 0.423583984375
▁line 0.27783203125
▁of 0.0263519287109375
▁defense 0.25
▁by 2.05078125
▁reporting 3.19140625
▁concerns 2.66015625
▁to 0.6083984375
▁prompt 8.6640625
ly 1.2509765625
▁parents 1.0634765625
. 1.30078125
▁Par 2.830078125
ents 0.00920867919921875
, 1.091796875
▁turn 12.328125
, 1.025390625
▁in 5.62109375
▁should 3.677734375
▁these 5.90625
▁take 7.16796875
▁concerns 3.375
▁seriously 1.513671875
▁and 0.30224609375
▁work 2.486328125
▁collect 6.703125
ively 0.01375579833984375
▁with 0.5380859375
▁teachers 0.449951171875
▁to 0.27880859375
▁offer 5.22265625
▁support 1.18359375
▁and 0.496337890625
▁tail 7.0
ored 0.1175537109375
▁appropriate 7.83984375
▁inter 0.5498046875
vention 1.501953125
▁to 3.189453125
▁student 3.58984375
' 1.0576171875
s 0.00514984130859375
▁the 5.7890625
▁needs 1.51953125
. 0.1668701171875
<0x0A> 0.04669189453125
Str 2.515625
ateg 0.0009975433349609375
ies 0.0010023117065429688
▁for 0.10009765625
▁Communic 1.470703125
ating 0.118408203125
▁Effect 3.4453125
ively 0.00738525390625
▁with 0.385986328125
▁At 0.91845703125
- 0.01259613037109375
R 0.11114501953125
isk 0.001087188720703125
▁Te 0.51171875
en 0.353515625
agers 0.017974853515625
<0x0A> 0.07403564453125
1 0.52490234375
. 0.01313018798828125
▁List 2.328125
ening 1.5400390625
: 2.033203125
<0x0A> 0.49755859375
When 3.38671875
▁Active 13.2578125
▁communic 3.693359375
ating 0.0269622802734375
▁with 0.3349609375
▁at 0.5859375
- 0.00865936279296875
ris 0.00893402099609375
k 0.0013370513916015625
▁te 0.275390625
en 0.03656005859375
agers 0.0139617919921875
, 0.2379150390625
▁both 5.20703125
▁and 1.2880859375
▁parents 0.5615234375
▁teachers 0.45556640625
▁prior 9.1953125
it 0.033294677734375
ize 0.1317138671875
▁should 3.3515625
▁active 2.681640625
▁listening 0.17724609375
. 0.845703125
▁G 5.625
enu 3.048828125
ine 0.615234375
▁em 3.41015625
path 0.004974365234375
y 0.1365966796875
, 2.044921875
▁and 1.89453125
▁attention 3.59375
, 2.447265625
▁understanding 4.62890625
▁can 3.150390625
▁alle 7.80078125
vi 0.000812530517578125
ate 0.01039886474609375
▁any 4.046875
▁feelings 1.6787109375
▁of 0.2271728515625
▁isol 0.77392578125
ation 0.0012187957763671875
▁hop 10.3828125
eless 0.005687713623046875
ness 0.0175933837890625
▁or 2.09375
▁that 3.048828125
▁the 2.4921875
▁te 1.486328125
en 0.0099639892578125
ager 0.324462890625
▁may 0.7001953125
▁be 0.34130859375
▁experien 0.2215576171875
cing 2.491474151611328e-05
. 0.126220703125
▁act 6.16015625
ively 0.02734375
▁By 3.404296875
▁listening 0.7998046875
▁without 4.10546875
▁judgment 0.418212890625
, 0.736328125
▁adult 5.12890625
s 0.032928466796875
▁can 0.67431640625
▁provide 2.361328125
▁a 1.0517578125
▁safe 0.55810546875
▁space 0.318115234375
▁for 0.32470703125
▁te 1.33984375
en 0.10968017578125
agers 0.017486572265625
▁to 0.216552734375
▁start 9.0859375
▁their 4.34765625
▁sharing 5.16796875
▁thoughts 2.95703125
▁and 0.65185546875
▁emot 2.001953125
ions 0.006988525390625
. 0.60302734375
<0x0A> 0.2318115234375
2 0.1702880859375
. 0.00981903076171875
▁P 6.42578125
atience 0.3701171875
▁and 0.755859375
▁Non 4.203125
- 0.1175537109375
J 0.40185546875
ud 0.00022792816162109375
gment 0.10760498046875
al 1.0283203125
▁Att 1.4677734375
itude 0.01898193359375
: 0.02618408203125
<0x0A> 0.004093170166015625
T 2.412109375
each 0.09625244140625
ers 0.05731201171875
▁and 0.35107421875
▁parents 0.1492919921875
▁must 1.66796875
▁maintain 3.1484375
▁p 2.24609375
atience 0.0008106231689453125
▁and 0.331298828125
▁avoid 3.306640625
▁passing 3.052734375
▁jud 1.9169921875
g 0.002227783203125
ments 0.5927734375
▁when 0.63525390625
▁discuss 4.22265625
ing 0.0217132568359375
▁sensitive 1.0712890625
▁topics 0.56591796875
▁with 0.62353515625
▁that 8.8125
▁te 0.97119140625
en 0.0264892578125
agers 0.2467041015625
. 0.38818359375
▁at 7.1796875
- 0.1522216796875
ris 0.082763671875
k 0.0023097991943359375
▁they 7.80859375
▁Remember 7.51953125
▁may 6.109375
▁find 4.23046875
▁it 0.6689453125
▁difficult 0.2322998046875
▁art 8.1015625
ic 0.8203125
ulate 0.0227813720703125
▁to 5.01953125
▁their 0.55712890625
▁emot 1.7021484375
ions 0.037567138671875
, 1.03125
▁or 3.185546875
▁fear 4.421875
s 2.537109375
, 1.24609375
▁strugg 9.15625
les 0.002460479736328125
. 1.3935546875
▁By 2.12109375
▁creating 3.939453125
▁an 1.828125
▁environment 1.1005859375
▁free 2.58203125
▁from 1.0478515625
▁criticism 1.7890625
▁and 1.1025390625
▁judgment 1.822265625
, 0.10858154296875
▁adult 1.0078125
s 0.00588226318359375
▁can 0.40625
▁encou 1.5888671875
rage 3.9458274841308594e-05
▁te 1.0205078125
en 0.04058837890625
agers 0.01033782958984375
▁to 0.28466796875
▁open 1.083984375
ly 2.505859375
, 6.49609375
▁speak 6.078125
▁fost 8.328125
ering 0.492431640625
▁trust 2.12890625
▁and 0.9423828125
▁communication 2.41796875
. 0.195068359375
<0x0A> 0.09259033203125
3 0.09259033203125
. 0.00696563720703125
▁Coll 3.826171875
abor 0.0003399848937988281
ative 1.0419921875
▁Problem 2.365234375
- 0.30126953125
Sol 0.0183258056640625
ving 0.002559661865234375
: 0.06396484375
<0x0A> 0.0037136077880859375
Inst 4.65234375
ead 0.00335693359375
▁impos 9.1875
ing 0.0020809173583984375
▁of 3.595703125
▁solutions 1.5419921875
, 0.60205078125
▁teachers 0.748046875
▁and 0.17919921875
▁parents 0.0570068359375
▁should 0.564453125
▁eng 3.59765625
age 0.0137481689453125
▁in 0.580078125
▁collabor 0.280517578125
ative 0.00421142578125
▁problem 0.05780029296875
- 0.039031982421875
sol 0.00408935546875
ving 0.000698089599609375
▁with 0.61474609375
▁at 0.62109375
- 0.003444671630859375
ris 0.002742767333984375
k 0.00026726722717285156
▁Enc 11.59375
ou 0.0029926300048828125
rage 0.87060546875
▁te 0.166015625
en 0.006847381591796875
agers 0.007152557373046875
. 2.16796875
▁te 4.3515625
en 0.08160400390625
agers 0.0738525390625
▁to 0.9404296875
▁express 3.115234375
▁their 0.447998046875
▁thoughts 2.11328125
▁on 3.99609375
▁solutions 3.3515625
▁potential 5.66015625
▁work 6.7421875
▁and 3.662109375
▁together 2.880859375
▁to 2.3828125
▁create 3.185546875
▁action 3.23828125
▁an 8.328125
▁plan 1.1572265625
, 4.30078125
▁emp 6.46484375
ower 0.0039215087890625
ing 0.059722900390625
▁them 0.53076171875
▁to 0.2744140625
▁take 0.5517578125
▁ownership 1.8466796875
▁of 0.55712890625
▁mental 6.73046875
▁their 1.1611328125
▁This 7.82421875
▁well 3.994140625
- 0.0799560546875
be 0.0091705322265625
ing 0.0008835792541503906
. 0.99755859375
▁approach 2.578125
▁enh 6.19140625
ance 3.681640625
▁will 3.14453125
▁their 4.265625
▁confidence 2.705078125
▁and 0.66552734375
▁rein 6.01953125
force 0.06036376953125
▁the 0.95166015625
▁idea 2.171875
▁that 0.1043701171875
▁they 0.5615234375
▁are 0.5078125
▁not 0.9072265625
▁in 5.796875
▁alone 3.830078125
▁their 3.5
▁strugg 0.939453125
les 0.0005402565002441406
. 0.1575927734375
<0x0A> 0.09173583984375
4 0.236083984375
. 0.00556182861328125
▁Refer 3.134765625
ring 2.943359375
▁to 0.34228515625
▁Professional 1.396484375
▁Help 0.7626953125
: 0.1273193359375
<0x0A> 0.0019779205322265625
T 2.41015625
each 0.012939453125
ers 0.00850677490234375
▁and 0.149169921875
▁parents 0.05078125
▁should 0.34130859375
▁aware 5.9375
▁be 1.892578125
▁of 1.0712890625
▁their 3.490234375
▁and 3.60546875
▁limitations 4.5
▁be 5.77734375
▁prepared 3.923828125
▁to 0.404541015625
▁refer 0.429443359375
▁at 0.984375
- 0.0158538818359375
ris 0.0048370361328125
k 0.0008821487426757812
▁te 0.302490234375
en 0.0040740966796875
agers 0.0077056884765625
▁to 0.314697265625
▁health 7.29296875
▁mental 3.498046875
▁profession 0.7607421875
als 0.0032711029052734375
▁when 1.974609375
▁necessary 0.87060546875
. 0.09912109375
▁This 2.8203125
▁communication 6.265625
▁should 2.93359375
▁be 1.294921875
▁carried 5.171875
▁out 0.1317138671875
▁sens 2.572265625
it 0.0243682861328125
ively 0.0006279945373535156
, 0.755859375
▁highlight 4.4453125
ing 0.046539306640625
▁professional 6.19140625
▁as 5.6875
▁assistance 6.08203125
▁an 3.03515625
▁additional 3.701171875
▁support 1.869140625
▁system 4.6328125
▁rather 1.59765625
▁than 0.15771484375
▁a 0.8720703125
▁replacement 3.525390625
▁for 0.56640625
▁family 1.283203125
▁or 1.7900390625
▁school 1.3759765625
▁relationships 3.744140625
. 0.0589599609375
<0x0A> 0.21875
Con 3.087890625
clusion 0.051727294921875
<0x0A> 2.96484375
The 2.54296875
▁alarm 6.39453125
ing 0.04949951171875
▁of 3.529296875
▁rise 3.69140625
▁suic 2.1953125
ide 0.091796875
▁te 2.798828125
en 0.00910186767578125
age 0.25830078125
▁a 5.40234375
▁necess 7.96484375
it 0.11920166015625
ates 0.01148223876953125
▁joint 5.64453125
▁effort 3.0234375
▁teachers 3.138671875
▁between 6.42578125
▁and 0.54931640625
▁parents 0.17431640625
▁to 0.60693359375
▁create 4.30078125
▁protect 5.46875
ive 0.060028076171875
▁a 4.53515625
▁and 3.03515625
▁n 2.015625
urt 0.0037822723388671875
uring 0.0018663406372070312
▁for 3.970703125
▁our 5.53125
▁environment 2.884765625
▁youth 4.1484375
. 0.31298828125
▁By 1.6259765625
▁establish 2.380859375
ing 0.0088653564453125
▁open 1.228515625
▁of 6.41015625
▁channels 2.060546875
▁communication 0.685546875
, 0.263916015625
▁en 2.40234375
han 0.1689453125
cing 9.918212890625e-05
▁mental 0.1796875
▁health 0.78662109375
▁education 0.125732421875
, 0.113037109375
▁fost 1.205078125
ering 0.00164794921875
▁an 0.396484375
▁inclus 0.06451416015625
ive 8.594989776611328e-05
▁class 0.1796875
room 0.0023555755615234375
, 3.119140625
▁early 1.1552734375
▁inter 6.38671875
vention 0.047607421875
, 0.6572265625
▁identification 8.1171875
, 1.1611328125
▁and 0.287353515625
▁parents 8.015625
▁and 2.046875
▁teachers 0.54345703125
▁can 3.904296875
▁work 1.6953125
▁together 0.495361328125
▁to 0.323486328125
▁address 3.2578125
▁this 2.046875
▁issue 2.1484375
. 1.8505859375
▁critical 6.21875
▁Emp 10.1484375
loy 2.306640625
ing 0.084716796875
▁strateg 1.685546875
ies 0.004299163818359375
▁such 1.3017578125
▁as 0.05029296875
▁active 0.390380859375
▁listening 0.05389404296875
, 0.03948974609375
▁a 1.921875
▁non 0.65234375
- 0.0199737548828125
jud 0.0262603759765625
gment 0.01035308837890625
al 0.00547027587890625
▁attitude 0.61572265625
, 0.03485107421875
▁problem 3.08984375
- 0.023834228515625
sol 0.0030727386474609375
ving 0.0005064010620117188
, 0.368408203125
▁and 0.0765380859375
▁collabor 4.125
ative 0.278564453125
▁appropriate 9.6015625
▁refer 1.4033203125
r 0.5048828125
als 0.0004754066467285156
▁to 1.0546875
▁professional 1.1259765625
▁help 0.240478515625
▁will 3.275390625
▁significantly 4.30078125
▁contribute 2.193359375
▁to 0.21142578125
▁effectively 5.66796875
▁communicate 3.568359375
▁with 0.7998046875
▁at 0.271484375
- 0.005916595458984375
ris 0.0034503936767578125
k 0.0005145072937011719
▁consistent 13.765625
▁te 1.740234375
en 0.0053558349609375
agers 0.01207733154296875
. 0.8662109375
▁Through 6.265625
▁collaboration 3.310546875
, 0.62158203125
▁we 1.3544921875
▁can 0.11285400390625
▁create 1.4580078125
▁a 0.4013671875
▁support 1.203125
ive 0.01068115234375
▁network 5.84375
▁that 1.07421875
▁ens 3.24609375
ures 0.0013885498046875
▁the 1.1845703125
▁emot 2.556640625
ional 0.0003228187561035156
▁well 0.383544921875
- 0.0469970703125
be 0.0019426345825195312
ing 0.00023257732391357422
▁of 0.349365234375
▁our 0.3271484375
▁prevent 12.40625
ing 1.2685546875
▁ad 3.59765625
oles 0.0013866424560546875
c 0.202392578125
ents 0.55078125
, 3.35546875
▁te 1.4775390625
en 0.05560302734375
age 0.263916015625
▁suic 0.441650390625
ide 0.06304931640625
▁and 2.185546875
▁fost 2.849609375
ering 0.11663818359375
▁lif 5.5859375
el 0.01354217529296875
ong 3.647804260253906e-05
▁res 1.5029296875
ili 0.08770751953125
ence 2.849102020263672e-05
. 0.164306640625
