▁It 5.08203125
▁was 2.318359375
▁cold 6.6015625
, 1.8095703125
▁and 2.287109375
▁d 4.81640625
amp 0.11346435546875
, 0.67529296875
▁and 0.188232421875
▁miser 3.609375
able 0.034698486328125
. 0.8212890625
▁A 4.3671875
▁reason 8.765625
ably 0.67333984375
▁normal 4.78125
▁day 1.349609375
▁in 0.81591796875
▁the 1.5830078125
▁south 4.9765625
▁east 2.96875
▁of 0.450439453125
▁England 0.1573486328125
▁around 9.1953125
▁this 1.9013671875
▁time 0.01428985595703125
▁of 0.08355712890625
▁year 0.1746826171875
. 0.33154296875
▁Men 10.0390625
▁and 1.5595703125
▁women 0.06488037109375
▁in 2.9765625
▁white 5.375
▁over 2.75390625
alls 0.09844970703125
▁were 1.7158203125
▁sc 3.4765625
our 3.5703125
ing 0.012359619140625
▁the 0.34765625
▁scene 6.80078125
▁for 2.455078125
▁evidence 1.6025390625
▁whilst 5.875
▁others 1.9892578125
▁were 1.759765625
▁plant 8.1875
ing 0.027923583984375
▁down 8.34375
▁number 6.6953125
▁markers 4.55859375
▁and 1.6572265625
▁taking 2.83203125
▁photos 2.15234375
. 0.681640625
<0x0A> 1.5732421875
" 4.625
In 5.34765625
spect 1.4775390625
or 0.043701171875
?" 4.48046875
▁a 2.58203125
▁voice 1.107421875
▁cut 4.80859375
▁through 0.322021484375
▁the 0.2012939453125
▁still 4.10546875
▁mist 5.75
▁as 4.73828125
▁Gre 9.546875
aves 2.591796875
▁st 4.5390625
om 1.98046875
ped 0.0039005279541015625
▁up 3.240234375
▁the 0.71533203125
▁hill 2.36328125
▁and 3.4140625
▁showed 9.125
▁his 0.833984375
▁bad 1.927734375
ge 0.004764556884765625
▁to 0.77392578125
▁the 0.427001953125
▁officer 2.75
▁man 3.755859375
ning 0.0283966064453125
▁the 0.064697265625
▁police 4.12890625
▁t 0.99853515625
ape 0.01209259033203125
. 0.345703125
<0x0A> 0.54296875
" 0.141845703125
What 3.099609375
' 1.296875
ve 2.2734375
▁we 0.416015625
▁got 0.01045989990234375
?" 0.82568359375
▁Gre 1.5771484375
aves 0.0008296966552734375
▁gr 4.12890625
umbled 1.2724609375
. 1.427734375
▁The 3.359375
▁morning 4.328125
▁coffee 7.046875
▁not 8.1875
▁having 1.6201171875
▁k 1.4873046875
icked 5.352497100830078e-05
▁in 0.016357421875
▁quite 3.482421875
▁yet 0.27099609375
▁and 3.232421875
▁he 1.9208984375
▁was 0.66064453125
▁still 1.9931640625
▁bl 7.42578125
inking 1.32421875
▁the 1.513671875
▁sleep 1.0869140625
▁out 1.103515625
▁of 0.0284423828125
▁his 0.017578125
▁eyes 0.059051513671875
. 0.09063720703125
<0x0A> 0.1812744140625
" 0.1307373046875
Double 6.69140625
▁hom 1.48046875
ic 0.005523681640625
ide 0.0009489059448242188
" 4.1015625
▁replied 4.4453125
▁the 0.06475830078125
▁officer 0.429931640625
▁" 2.78515625
M 3.650390625
ale 1.0390625
▁and 0.31103515625
▁female 0.1585693359375
▁of 5.05078125
▁around 2.466796875
▁the 2.296875
▁ages 4.67578125
▁twenty 5.2578125
. 5.48046875
▁We 2.8125
' 0.70068359375
re 1.2294921875
▁still 1.802734375
▁running 4.609375
▁identity 6.05859375
▁checks 0.333984375
▁so 5.203125
▁for 4.8515625
▁now 0.5859375
▁they 2.115234375
' 0.160888671875
re 0.08575439453125
▁just 1.17578125
▁going 5.203125
▁down 5.0078125
▁as 0.035919189453125
▁Jack 6.57421875
▁and 0.07684326171875
▁J 0.149169921875
ill 0.0032253265380859375
▁respectively 6.06640625
. 1.126953125
▁For 6.34765625
ens 0.51513671875
ics 0.11749267578125
▁hasn 5.91796875
' 0.005584716796875
t 0.00042319297790527344
▁got 2.1484375
ten 2.724609375
▁into 4.25390625
▁the 0.27685546875
▁cause 8.109375
▁of 0.115478515625
▁death 0.012176513671875
▁as 3.474609375
▁there 4.84375
' 0.331787109375
s 0.016082763671875
▁no 2.37109375
▁apparent 5.05078125
▁blood 5.96875
▁or 2.001953125
▁w 2.53515625
ounds 0.139892578125
▁on 2.109375
▁the 0.55712890625
▁individuals 9.0625
▁which 5.91015625
▁leads 2.478515625
▁us 1.107421875
▁to 0.018798828125
▁believe 0.242431640625
▁it 1.8681640625
▁could 3.83984375
▁have 1.27734375
▁potentially 8.125
▁been 0.06854248046875
▁a 1.0634765625
▁poison 2.267578125
ing 0.50244140625
". 4.46875
▁The 3.49609375
▁younger 6.265625
▁officer 0.34765625
▁took 4.3203125
▁off 3.353515625
▁her 5.00390625
▁cap 3.65625
▁and 0.4453125
▁smooth 4.2734375
ed 0.006359100341796875
▁her 1.0458984375
▁bl 3.150390625
onde 0.08123779296875
▁hair 0.1324462890625
. 1.95703125
▁Gre 2.923828125
aves 0.001255035400390625
▁estimated 7.109375
▁her 0.8642578125
▁to 0.404052734375
▁be 0.026580810546875
▁around 0.9716796875
▁the 2.29296875
▁age 1.099609375
▁of 0.018890380859375
▁ 1.849609375
3 2.318359375
0 0.48681640625
, 1.779296875
▁stress 11.8984375
▁lines 1.4736328125
▁around 2.265625
▁her 0.185791015625
▁eyes 0.298828125
▁suggested 4.30859375
▁that 2.0390625
▁she 0.5859375
▁wasn 3.25
' 0.004627227783203125
t 3.170967102050781e-05
▁getting 3.91796875
▁much 1.396484375
▁sleep 0.274658203125
. 1.2421875
<0x0A> 0.499755859375
As 5.91015625
▁they 1.951171875
▁approached 2.8359375
▁the 0.1405029296875
▁white 5.73828125
▁tent 1.1884765625
▁covering 4.23828125
▁the 0.19384765625
▁bodies 0.822265625
▁they 3.875
▁were 1.0673828125
▁intercept 7.5234375
ed 0.000713348388671875
▁by 0.024627685546875
▁a 0.88427734375
▁well 5.39453125
▁dressed 0.484130859375
▁gentleman 3.4921875
. 2.32421875
▁Sw 9.359375
ing 2.39453125
ing 0.0070953369140625
▁his 0.79248046875
▁can 2.884765625
e 0.00553131103515625
▁as 3.5234375
▁he 0.33984375
▁walked 0.763671875
, 1.439453125
▁his 2.490234375
▁suit 3.408203125
▁appearing 5.578125
▁surprising 7.9609375
ly 0.026397705078125
▁dry 4.3359375
▁considering 1.8984375
▁the 0.19677734375
▁weather 1.0283203125
. 0.36669921875
▁He 2.537109375
▁reached 5.359375
▁his 3.615234375
▁hand 0.6708984375
▁out 0.084716796875
▁to 0.9453125
▁sh 1.27734375
ake 0.0005059242248535156
▁the 2.37109375
▁Ins 1.6416015625
pect 0.00023055076599121094
ors 1.0146484375
▁and 1.5185546875
▁smiled 2.71875
▁a 3.505859375
▁to 1.7626953125
othy 0.4638671875
, 3.00390625
▁well 4.74609375
▁pract 2.25390625
iced 0.20751953125
▁gr 1.4873046875
in 0.002410888671875
. 0.16455078125
<0x0A> 0.26123046875
" 0.03765869140625
Ah 2.111328125
! 2.82421875
▁Ins 0.8427734375
pect 0.00012159347534179688
or 0.0129547119140625
, 1.9150390625
▁I 1.4521484375
▁was 2.08984375
▁hoping 1.70703125
▁to 1.1591796875
▁meet 2.3828125
▁you 0.2440185546875
▁before 3.62109375
▁we 2.853515625
▁got 2.2890625
▁to 1.9921875
▁the 0.8154296875
▁u 9.6171875
h 0.267822265625
..." 3.1796875
▁He 1.7861328125
▁paused 1.7158203125
▁for 2.0078125
▁a 0.2802734375
▁moment 0.3291015625
, 1.224609375
▁his 3.3203125
▁eyes 1.388671875
▁d 1.5478515625
art 0.00127410888671875
ing 0.026336669921875
▁to 1.615234375
▁the 0.34130859375
▁tent 3.298828125
▁for 4.921875
▁a 0.44482421875
▁second 1.662109375
▁"... 4.515625
G 6.5078125
rist 6.51953125
ly 0.67138671875
▁details 0.90283203125
. 1.0244140625
▁I 0.8017578125
' 0.340576171875
ll 4.2578125
▁be 1.2919921875
▁working 3.546875
▁with 0.444580078125
▁you 0.23828125
▁on 0.830078125
▁this 0.245361328125
▁case 0.689453125
. 2.474609375
▁My 1.3154296875
▁name 0.05157470703125
' 1.31640625
s 0.00021207332611083984
▁Gregory 6.015625
, 2.357421875
▁Gregory 3.134765625
▁C 4.2578125
off 4.97265625
yn 5.80078125
. 1.12890625
▁I 0.78759765625
' 0.31103515625
m 0.28173828125
▁one 4.140625
▁of 0.0112457275390625
▁the 0.1678466796875
▁A 7.74609375
bled 12.5390625
." 3.294921875
<0x0A> 0.42822265625
The 2.365234375
▁' 6.92578125
A 0.366455078125
bled 0.018341064453125
' 0.167724609375
▁as 2.615234375
▁they 1.009765625
' 3.345703125
d 0.50244140625
▁come 1.0966796875
▁to 0.0025424957275390625
▁have 8.5
▁been 1.2314453125
▁known 1.869140625
▁were 1.5341796875
▁something 6.29296875
▁that 2.44140625
▁still 6.953125
▁remained 5.15625
▁to 4.69921875
▁be 0.15966796875
▁a 1.4580078125
▁mystery 0.6748046875
▁to 0.81103515625
▁modern 5.95703125
▁science 1.1396484375
. 0.2139892578125
▁Through 5.91015625
out 0.5595703125
▁history 0.8828125
▁despite 9.9765625
▁the 1.7607421875
▁adv 2.830078125
ances 0.64013671875
▁in 0.466552734375
▁technology 1.3642578125
, 1.2578125
▁medicine 2.708984375
▁and 0.3388671875
▁the 2.6640625
▁physical 6.41796875
▁sciences 0.1253662109375
▁the 2.41796875
▁A 1.7431640625
bled 0.0516357421875
▁had 0.86962890625
▁been 2.4140625
▁very 7.265625
▁much 1.0234375
▁on 4.5234375
▁the 0.0611572265625
▁par 7.8671875
an 0.51953125
ormal 0.00262451171875
▁end 3.26171875
▁of 0.0259552001953125
▁things 1.8623046875
. 0.197021484375
▁Une 9.078125
x 0.238037109375
pla 1.59765625
ined 0.0012388229370117188
▁occurr 3.3515625
ences 0.0016527175903320312
▁such 2.505859375
▁as 0.005542755126953125
▁floating 6.5625
▁lights 3.001953125
, 0.48828125
▁sounds 5.72265625
▁that 2.232421875
▁had 3.361328125
▁no 0.2032470703125
▁source 1.34765625
▁and 0.95947265625
▁floating 8.28125
▁objects 0.7861328125
▁t 7.41796875
ended 0.02069091796875
▁to 0.00806427001953125
▁be 0.6865234375
▁manifest 9.1015625
ations 0.089599609375
▁of 0.253662109375
▁such 7.140625
▁individuals 1.443359375
. 0.244140625
▁The 2.439453125
▁majority 4.1171875
▁of 0.1475830078125
▁them 2.326171875
▁were 1.3134765625
▁unable 5.41796875
▁to 0.015045166015625
▁correctly 9.9140625
▁att 8.515625
une 0.1529541015625
▁themselves 1.134765625
▁before 8.7578125
▁m 7.34375
atur 1.072265625
ity 0.022918701171875
▁and 0.904296875
▁as 2.150390625
▁a 0.9306640625
▁result 0.040252685546875
▁were 1.630859375
▁never 5.3515625
▁quite 3.841796875
▁able 1.3720703125
▁to 0.00754547119140625
▁get 3.314453125
▁a 1.125
▁grasp 2.076171875
▁on 0.290771484375
▁their 0.70458984375
▁ab 0.94140625
ilities 0.002506256103515625
. 0.4814453125
▁However 3.705078125
▁those 3.5703125
▁that 0.810546875
▁did 1.203125
▁became 5.76171875
▁extra 6.27734375
ordin 0.07281494140625
arily 0.0037937164306640625
▁tal 3.19140625
ented 0.0009212493896484375
▁in 1.2509765625
▁whatever 3.7578125
▁special 4.7265625
ties 4.3125
▁they 0.1728515625
▁focused 3.70703125
▁themselves 4.0
▁on 0.464111328125
. 0.29345703125
▁They 3.552734375
▁also 4.203125
▁became 3.25390625
▁a 2.712890625
▁great 3.7578125
▁asset 1.7275390625
, 5.1953125
▁or 3.09765625
▁a 1.939453125
▁greater 5.71875
▁threat 1.7216796875
. 4.5546875
<0x0A> 1.107421875
" 0.90625
Ah 2.9296875
!" 3.8828125
▁Sm 6.93359375
iled 0.33203125
▁Gre 0.53125
aves 0.001972198486328125
▁" 1.123046875
and 6.1640625
▁what 2.1484375
' 2.80859375
s 0.238037109375
▁your 0.39501953125
▁par 9.75
lor 2.498046875
▁trick 0.10235595703125
? 2.34765625
". 2.341796875
▁Gregory 3.37109375
▁raised 3.455078125
▁an 0.62646484375
▁e 0.0223388671875
y 0.0005469322204589844
eb 0.00023949146270751953
row 0.0006947517395019531
▁and 1.205078125
▁purs 5.390625
ed 0.00339508056640625
▁his 0.004940032958984375
▁lips 0.032257080078125
▁as 2.611328125
▁he 0.71826171875
▁ass 5.81640625
essed 0.005279541015625
▁the 0.456787109375
▁detect 3.8203125
ive 0.0064697265625
. 0.630859375
▁He 2.80078125
▁st 6.0078125
ared 0.634765625
▁at 1.19140625
▁Gre 1.3466796875
aves 0.0024738311767578125
▁for 0.8447265625
▁a 0.190673828125
▁moment 0.93603515625
▁before 1.033203125
▁finally 4.44921875
, 5.578125
▁almost 3.08203125
▁rel 1.69140625
uct 0.004390716552734375
antly 0.002307891845703125
▁adm 6.08984375
itting 0.003582000732421875
▁" 0.73876953125
I 0.79833984375
' 0.83203125
m 0.061981201171875
▁good 5.5703125
▁with 0.71826171875
▁time 5.98828125
". 1.154296875
▁Gre 2.548828125
aves 0.0023345947265625
▁made 5.53515625
▁a 0.33740234375
▁face 1.28125
▁" 2.375
Time 3.1015625
?" 2.162109375
▁he 1.0390625
▁asked 1.40234375
▁apparently 9.90625
▁un 2.810546875
im 0.498046875
pressed 0.00086212158203125
▁at 5.31640625
▁the 0.61474609375
▁explanation 4.7734375
. 0.480224609375
▁" 1.1748046875
Can 5.2421875
▁you 0.9638671875
▁maybe 7.453125
▁un 6.59375
pack 3.955078125
▁that 0.093505859375
▁for 0.9990234375
▁me 0.08624267578125
? 1.5107421875
▁Us 9.703125
▁normal 1.9580078125
▁folk 0.4033203125
▁don 1.6591796875
' 0.0015325546264648438
t 0.000156402587890625
▁quite 1.7080078125
▁understand 0.705078125
▁whatever 9.3359375
▁w 5.0078125
itch 0.69482421875
craft 0.25927734375
, 6.140625
▁sor 2.4921875
c 0.009857177734375
ery 0.0002951622009277344
▁or 0.4521484375
▁magic 2.59765625
▁you 0.53125
▁might 3.365234375
▁do 5.9765625
". 1.5458984375
▁Gregory 1.2041015625
▁shift 4.6953125
ed 0.0002586841583251953
▁un 1.5078125
com 0.0009832382202148438
fort 0.0010251998901367188
ably 0.031890869140625
▁and 1.673828125
▁looked 2.4140625
▁down 2.078125
▁at 0.5458984375
▁his 0.6337890625
▁sho 1.0869140625
es 0.0003616809844970703
▁whilst 5.890625
▁t 4.79296875
apping 0.07904052734375
▁his 0.560546875
▁can 0.26025390625
e 0.002838134765625
▁on 1.1142578125
▁the 0.00971221923828125
▁grass 3.37890625
. 0.409423828125
▁He 2.798828125
▁pulled 5.375
▁out 1.8681640625
▁a 0.305908203125
▁pair 4.50390625
▁of 0.00354766845703125
▁glo 3.978515625
ves 0.02154541015625
▁from 1.0634765625
▁his 0.31201171875
▁pocket 1.30078125
, 2.458984375
▁run 11.1796875
es 1.1103515625
▁se 6.15625
wn 0.1529541015625
▁into 0.52880859375
▁the 0.2734375
▁fabric 2.99609375
. 1.478515625
▁Gold 10.265625
▁thread 3.484375
▁we 3.486328125
aved 0.70751953125
▁into 2.380859375
▁the 0.7509765625
▁soft 6.5859375
▁le 0.366943359375
ather 0.006214141845703125
▁forming 4.86328125
▁intr 3.021484375
icate 0.004581451416015625
▁symbols 2.291015625
▁of 3.732421875
▁power 2.28515625
▁that 3.51953125
▁helped 5.8671875
▁the 2.822265625
▁A 1.814453125
bled 0.044769287109375
▁focus 1.8876953125
▁their 0.498291015625
▁tal 3.970703125
ents 0.0007171630859375
. 0.1971435546875
▁" 2.4453125
How 5.6953125
▁about 1.029296875
▁we 1.8173828125
▁get 2.455078125
▁to 2.216796875
▁it 3.849609375
▁and 2.23828125
▁I 1.205078125
' 0.70556640625
ll 0.00405120849609375
▁demonstrate 5.0
▁as 4.18359375
▁we 0.1859130859375
▁go 0.30908203125
" 2.1484375
▁S 8.4609375
ighed 2.337890625
▁Gregory 0.2744140625
▁as 2.3046875
▁he 0.1373291015625
▁lifted 6.65234375
▁his 0.93408203125
▁can 1.5556640625
e 0.0018310546875
▁to 2.490234375
▁indicate 4.359375
▁the 0.8291015625
▁tent 0.73876953125
▁" 3.595703125
after 4.1875
▁you 1.283203125
". 1.1865234375
<0x0A> 0.3515625
Gre 1.353515625
aves 0.0016927719116210938
▁gr 3.7265625
unted 0.95458984375
▁and 0.75439453125
▁st 4.14453125
om 0.174072265625
ped 0.0018224716186523438
▁over 2.1328125
▁to 0.21484375
▁the 0.07562255859375
▁tent 0.236328125
. 0.93505859375
▁He 1.4931640625
▁lifted 4.26953125
▁up 2.708984375
▁the 0.209228515625
▁canvas 3.1328125
▁f 1.3994140625
lap 0.2138671875
▁and 0.341796875
▁stepped 2.404296875
▁inside 0.64306640625
. 0.51953125
<0x0A> 2.67578125
( 7.51953125
I 3.158203125
' 0.7880859375
ll 1.0400390625
▁probably 3.59375
▁finish 4.59375
▁this 0.58447265625
▁up 1.998046875
▁when 4.23828125
▁I 0.1741943359375
▁get 0.98828125
▁home 1.5048828125
▁from 1.533203125
▁work 0.189697265625
) 1.7939453125
