▁Cla 10.375
w 5.97265625
▁scratch 9.40625
es 5.60546875
▁are 5.69921875
▁left 8.578125
▁on 5.0234375
▁the 1.6015625
▁inside 6.8046875
▁of 1.640625
▁the 0.81396484375
▁tiny 9.8046875
▁view 10.7265625
ing 3.158203125
▁window 4.5
▁which 5.109375
▁was 4.1875
▁in 4.109375
▁the 0.9375
▁top 5.37890625
▁of 1.0322265625
▁the 0.400634765625
▁door 7.28515625
. 2.515625
▁The 2.1875
▁sound 7.50390625
▁of 1.1650390625
▁a 2.884765625
▁mini 7.67578125
ature 0.5439453125
▁window 4.37109375
▁breaking 6.50390625
▁was 2.740234375
▁surprising 7.78125
ly 1.5205078125
▁quiet 4.984375
, 2.162109375
▁stress 11.15625
▁on 5.6953125
▁the 0.60693359375
▁glass 6.24609375
▁then 6.85546875
▁fragments 8.8046875
▁t 5.890625
ink 1.9345703125
ling 0.8525390625
▁on 2.125
▁the 0.270263671875
▁t 4.39453125
iled 1.984375
▁treatment 12.0859375
▁room 2.6796875
▁floor 0.7119140625
. 0.498779296875
▁Nothing 6.78515625
▁compared 6.43359375
▁to 0.240478515625
▁my 4.75
▁sc 5.1875
ree 2.98046875
ch 0.095703125
: 9.8359375
<0x0A> 3.78515625
" 1.380859375
I 2.24609375
' 1.2099609375
m 0.4287109375
▁not 2.283203125
▁sc 3.587890625
ared 0.419677734375
▁of 0.873046875
▁you 2.30078125
!" 2.087890625
<0x0A> 0.59423828125
My 3.78515625
▁ring 7.84375
ing 0.5078125
▁voice 1.712890625
▁echo 2.703125
es 3.7109375
▁through 2.03515625
▁the 0.18603515625
▁h 4.4375
alls 0.56982421875
▁of 0.94287109375
▁the 0.62451171875
▁hospital 2.376953125
, 1.57421875
▁disturb 6.90625
ing 0.01100921630859375
▁no 5.1796875
▁one 0.245849609375
▁normal 12.9609375
, 1.49609375
▁I 3.478515625
' 1.8623046875
m 0.174072265625
▁sure 2.529296875
. 0.75537109375
▁The 2.453125
▁darkness 7.65625
▁of 1.2802734375
▁an 5.1640625
▁ 5.8359375
1 2.099609375
1 0.6181640625
pm 1.298828125
▁winter 5.11328125
s 2.333984375
▁night 0.60205078125
▁makes 4.69921875
▁it 1.3984375
▁a 3.548828125
▁sp 7.51953125
ook 0.08221435546875
y 0.07086181640625
▁side 9.1875
. 5.09375
▁If 5.26171875
▁I 1.041015625
▁y 5.77734375
elled 1.3232421875
▁a 3.79296875
▁second 4.40234375
▁time 0.1163330078125
, 0.9921875
▁then 4.42578125
▁that 4.125
▁stern 11.5390625
▁veter 9.46875
an 0.662109375
▁of 2.5546875
▁a 1.6640625
▁nur 2.54296875
se 0.0007910728454589844
▁would 0.9580078125
▁come 3.294921875
▁and 3.138671875
▁shut 4.3671875
▁me 0.93017578125
▁up 0.74755859375
. 0.8115234375
▁I 1.8828125
▁know 4.015625
▁it 2.6015625
. 2.25
<0x0A> 1.4521484375
But 3.66015625
, 2.70703125
▁it 3.1875
▁may 6.37109375
▁help 5.1953125
▁to 1.6728515625
▁see 3.96484375
▁another 5.1953125
▁person 3.958984375
, 3.041015625
▁since 7.3046875
▁I 1.001953125
▁know 3.67578125
▁I 1.619140625
▁am 2.53125
▁del 7.5
us 0.5947265625
ional 0.0037555694580078125
, 1.7685546875
▁could 7.65234375
▁an 7.31640625
▁interaction 6.9609375
▁with 0.81689453125
▁reality 6.49609375
▁help 2.021484375
? 1.5205078125
<0x0A> 1.1142578125
I 1.8115234375
▁have 3.234375
▁to 3.021484375
▁face 4.796875
▁my 1.8662109375
▁fear 1.1103515625
s 0.56201171875
. 1.626953125
<0x0A> 1.0869140625
When 5.015625
▁I 0.75
▁first 3.296875
▁felt 6.05859375
▁weak 6.80859375
▁and 1.529296875
▁n 5.05078125
ause 0.031829833984375
ous 0.2247314453125
▁and 3.826171875
▁not 4.61328125
▁all 5.1875
▁right 2.818359375
, 0.5078125
▁I 0.6279296875
▁was 2.46875
▁wor 4.66796875
ried 0.00092315673828125
, 2.83203125
▁anxious 5.26953125
▁and 1.1806640625
▁obs 7.30859375
essed 0.53173828125
▁over 3.876953125
▁it 2.3828125
. 0.421630859375
▁When 4.2265625
▁it 2.986328125
▁came 2.478515625
▁into 4.80859375
▁the 2.341796875
▁light 2.8515625
, 1.0625
▁obviously 9.34375
▁cancer 8.28125
, 1.111328125
▁though 7.75390625
▁a 3.86328125
▁battery 9.8125
▁of 0.55517578125
▁tests 0.537109375
▁was 3.646484375
▁required 4.57421875
. 1.80859375
▁I 1.5693359375
▁took 5.203125
▁it 2.49609375
▁in 2.404296875
▁st 1.658203125
ride 0.0007567405700683594
, 0.80712890625
▁I 2.916015625
▁was 2.029296875
▁dil 7.81640625
igent 0.045562744140625
▁in 2.697265625
▁hiding 9.25
▁my 1.3759765625
▁fear 1.9814453125
s 0.47998046875
▁from 1.875
▁family 3.77734375
▁and 0.638671875
▁taking 7.70703125
▁all 4.23046875
▁the 0.69091796875
▁vis 9.0390625
its 0.00310516357421875
▁and 2.013671875
▁performances 11.6015625
▁from 4.23828125
▁others 5.109375
▁in 2.865234375
▁st 1.041015625
ride 0.0005006790161132812
, 1.5244140625
▁as 2.80859375
▁well 1.9580078125
▁as 2.12109375
▁I 4.48046875
▁possibly 4.50390625
▁could 0.03375244140625
. 0.229736328125
▁I 1.416015625
' 3.66796875
m 0.5576171875
▁g 7.84765625
onna 0.75537109375
▁be 1.65234375
▁a 2.47265625
▁surv 3.912109375
iv 0.00896453857421875
or 0.003993988037109375
. 1.3486328125
<0x0A> 0.85302734375
But 2.236328125
▁the 3.607421875
▁hide 9.7734375
ous 0.38720703125
▁form 7.6796875
▁I 3.724609375
▁saw 2.001953125
▁pass 11.328125
▁my 3.462890625
▁door 2.9765625
? 4.78515625
▁That 2.6796875
▁broke 6.5703125
▁my 0.849609375
▁window 9.1640625
? 5.7109375
▁What 4.15625
▁could 3.474609375
▁it 1.8447265625
▁be 1.1689453125
? 0.177734375
▁I 2.3046875
▁know 3.447265625
▁it 1.677734375
' 1.658203125
s 0.00798797607421875
▁a 2.162109375
▁mon 4.2734375
ster 0.0372314453125
. 1.431640625
▁What 4.14453125
▁do 3.52734375
▁I 0.55859375
▁do 0.296630859375
▁though 7.52734375
? 0.177490234375
▁Blood 11.2265625
▁pressure 4.50390625
▁through 6.54296875
▁the 0.150146484375
▁roof 0.11920166015625
, 0.83642578125
▁dru 8.1328125
gs 0.036224365234375
▁racing 9.0234375
▁through 0.6015625
▁me 3.431640625
, 0.8623046875
▁all 4.49609375
▁part 6.41015625
▁of 0.038299560546875
▁treatment 5.81640625
▁that 4.20703125
▁makes 3.923828125
▁me 0.43994140625
▁we 5.578125
aker 0.69287109375
, 1.541015625
▁but 2.546875
▁not 2.84375
▁cra 6.984375
zy 0.08563232421875
. 0.65380859375
▁It 3.78515625
' 0.70068359375
s 0.007061004638671875
▁in 4.83984375
▁my 1.166015625
▁l 6.26953125
ungs 0.051788330078125
, 0.82470703125
▁not 3.908203125
▁my 0.849609375
▁head 1.615234375
, 1.697265625
▁I 2.25
▁have 3.474609375
▁the 3.701171875
▁documented 12.375
▁proof 2.763671875
▁for 4.65625
▁good 6.64453125
ness 0.32666015625
' 2.9296875
s 3.236328125
ake 7.41796875
. 0.434814453125
<0x0A> 1.05078125
I 1.3212890625
▁throw 8.734375
▁off 4.19921875
▁the 0.99658203125
▁covers 0.97607421875
▁of 2.822265625
▁the 1.8037109375
▁it 10.609375
chy 0.314453125
▁ster 8.65625
il 2.544921875
ized 0.0968017578125
▁bed 2.3203125
▁sheet 2.072265625
▁and 1.55859375
▁stand 4.1875
, 2.08984375
▁I 3.0234375
▁am 3.013671875
▁in 3.994140625
▁just 7.5078125
▁my 2.2265625
▁ro 4.25
be 0.05889892578125
▁from 5.0078125
▁home 4.20703125
, 0.77587890625
▁better 9.25
▁than 0.8037109375
▁the 2.1875
▁hospital 1.357421875
▁g 1.3935546875
own 0.004329681396484375
. 1.3984375
<0x0A> 2.68359375
As 5.23828125
▁I 0.328857421875
▁in 7.53515625
ch 0.5068359375
▁to 2.888671875
▁the 0.1875
▁door 0.76708984375
, 0.323974609375
▁I 0.796875
▁find 4.87109375
▁I 2.392578125
▁can 1.373046875
' 0.47509765625
t 0.001041412353515625
▁even 4.26953125
▁look 4.08984375
▁much 10.046875
▁out 6.95703125
▁the 1.216796875
▁window 0.39697265625
, 1.2080078125
▁I 2.0234375
▁just 3.8828125
▁see 3.478515625
▁the 1.2705078125
▁door 5.21484375
▁to 3.18359375
▁another 4.84765625
▁w 4.30859375
ard 0.00995635986328125
▁straight 7.9921875
▁across 2.74609375
, 2.654296875
▁and 2.724609375
▁its 5.61328125
▁dark 3.283203125
▁in 4.06640625
▁the 2.134765625
▁hall 1.294921875
. 1.6171875
▁Must 8.015625
ering 5.23046875
▁all 1.5888671875
▁my 0.83935546875
▁courage 1.859375
▁I 2.31640625
▁tent 7.953125
atively 0.053070068359375
▁open 1.4228515625
▁the 0.221923828125
▁door 0.104248046875
, 1.1171875
▁ready 6.26171875
▁to 0.58349609375
▁pull 6.234375
▁it 1.24609375
▁shut 1.3662109375
▁straight 9.3515625
▁away 1.306640625
. 0.916015625
▁( 7.63671875
It 3.17578125
▁doesn 3.611328125
' 0.0005431175231933594
t 0.0007328987121582031
▁have 3.716796875
▁a 0.6513671875
▁lock 2.68359375
, 1.365234375
▁why 5.0703125
▁doesn 5.44921875
' 0.00516510009765625
t 0.000518798828125
▁it 0.2042236328125
▁have 1.056640625
▁a 0.158447265625
▁lock 0.2156982421875
?) 0.65673828125
<0x0A> 0.72509765625
I 1.396484375
▁walk 3.09375
▁in 1.8515625
▁the 2.580078125
▁direction 2.763671875
▁that 4.68359375
▁I 1.1884765625
▁think 2.123046875
▁it 1.9716796875
▁went 3.10546875
. 1.5986328125
▁I 1.697265625
▁have 3.7265625
▁nothing 5.65234375
▁else 2.904296875
▁but 4.71484375
▁my 1.4833984375
▁sli 6.53515625
ppers 0.10784912109375
. 2.234375
<0x0A> 1.8544921875
I 1.349609375
▁abs 11.0546875
ently 0.90234375
▁grab 4.87890625
▁a 1.4326171875
▁random 6.4296875
▁standing 10.6796875
▁d 7.0703125
rip 4.171875
▁pole 4.41796875
, 1.3544921875
▁int 8.1875
ra 7.1015625
ven 0.0033893585205078125
ous 0.315185546875
▁thing 6.359375
. 2.5
<0x0A> 2.0546875
My 3.66796875
▁st 4.5
are 3.451171875
▁is 1.6845703125
▁focused 3.9453125
▁on 0.62158203125
▁the 0.45849609375
▁end 4.97265625
▁of 0.2900390625
▁the 0.239013671875
▁hall 3.025390625
. 1.7509765625
▁Instead 7.875
▁of 0.1505126953125
▁a 1.8623046875
▁normal 4.2109375
▁hospital 4.75
▁cor 4.09375
rid 0.001804351806640625
or 0.005908966064453125
▁it 3.896484375
▁looks 2.6875
▁like 0.361572265625
▁an 2.5703125
▁open 3.771484375
▁black 6.98046875
▁space 3.822265625
, 1.0341796875
▁almost 5.69140625
▁like 1.359375
▁a 0.654296875
▁portal 5.26171875
▁but 6.25
▁I 2.8203125
▁see 4.07421875
▁no 1.24609375
▁edges 9.1640625
. 1.1279296875
▁I 1.4775390625
▁realize 5.640625
▁that 2.072265625
▁the 1.9990234375
▁shadow 6.3125
▁mon 7.71875
ster 0.1285400390625
▁is 1.40625
▁standing 3.619140625
▁next 4.5859375
▁to 0.007129669189453125
▁it 2.751953125
, 0.72412109375
▁in 3.140625
▁the 0.77734375
▁darkness 3.19921875
. 0.98779296875
<0x0A> 0.9423828125
I 0.93994140625
▁pick 7.140625
▁up 0.1907958984375
▁speed 4.61328125
, 0.93408203125
▁trailing 8.96875
▁the 1.7607421875
▁pole 4.36328125
. 2.376953125
<0x0A> 1.15625
It 2.478515625
▁looks 3.45703125
▁like 0.69970703125
▁the 1.9423828125
▁mon 2.07421875
ster 0.018341064453125
▁is 0.61865234375
▁be 6.73046875
ck 0.2498779296875
oning 0.00801849365234375
▁with 4.71875
▁some 3.953125
▁long 6.37109375
▁tal 7.42578125
on 1.529296875
▁hand 5.25390625
, 1.2900390625
▁the 3.255859375
▁one 4.015625
▁that 1.67578125
▁broke 4.875
▁my 1.3056640625
▁window 0.210693359375
. 0.62451171875
▁Its 4.1796875
▁dark 4.171875
▁cla 6.0078125
w 0.87890625
▁lif 6.4375
ts 0.314697265625
▁and 2.541015625
▁extends 4.5703125
▁behind 6.8671875
▁it 1.7802734375
, 0.92333984375
▁read 10.3203125
ying 0.10589599609375
▁to 1.357421875
▁slash 4.96875
▁me 1.7919921875
▁to 2.7890625
▁rib 3.501953125
b 0.07232666015625
ons 0.0015506744384765625
. 0.47509765625
▁There 5.4765625
▁is 0.544921875
▁a 1.2763671875
▁pull 7.83203125
▁towards 4.39453125
▁ending 12.0390625
▁it 1.931640625
▁all 2.43359375
. 1.16015625
<0x0A> 0.64892578125
I 0.7177734375
▁start 5.2734375
▁sc 4.10546875
ream 0.00959014892578125
ing 0.00904083251953125
, 1.25390625
▁" 2.009765625
I 1.6162109375
' 0.54541015625
m 0.186279296875
▁not 0.5009765625
▁coming 6.1953125
▁with 2.912109375
▁you 0.049560546875
, 2.638671875
▁I 1.0224609375
' 0.43359375
m 0.09234619140625
▁not 0.5517578125
▁going 2.3203125
, 3.33984375
▁I 0.7509765625
' 0.394775390625
m 0.08819580078125
▁not 0.595703125
▁sc 3.26953125
ared 0.444091796875
!" 2.158203125
<0x0A> 0.281982421875
There 4.11328125
▁is 0.371337890625
▁no 1.6650390625
▁face 6.3125
▁on 3.904296875
▁the 0.438720703125
▁mon 1.3251953125
ster 0.0209808349609375
, 0.76513671875
▁within 10.8125
▁a 3.1796875
▁few 3.017578125
▁feet 2.07421875
▁of 1.5732421875
▁the 2.431640625
▁end 3.033203125
▁of 0.11895751953125
▁the 0.052276611328125
▁world 9.453125
▁I 2.4609375
▁swing 9.2421875
▁with 4.62890625
▁the 0.9345703125
▁pole 0.79638671875
▁and 2.0703125
▁catch 3.984375
▁its 2.716796875
▁middle 6.578125
, 2.263671875
▁the 3.03515625
▁re 7.67578125
co 2.546875
il 0.1650390625
▁is 2.529296875
▁fier 4.6640625
ce 0.00728607177734375
▁and 1.9775390625
▁the 2.59375
▁mon 2.09375
ster 0.01497650146484375
▁is 2.162109375
▁forced 5.32421875
▁back 1.771484375
. 1.189453125
<0x0A> 1.0791015625
Wh 6.69140625
ether 2.7890625
▁it 0.89013671875
' 1.8837890625
s 0.00494384765625
▁the 2.224609375
▁ad 6.8984375
ren 0.0020580291748046875
al 0.0865478515625
ine 0.03228759765625
▁or 1.236328125
▁the 0.94580078125
▁fear 2.60546875
, 1.1669921875
▁I 0.7939453125
▁don 2.38671875
' 0.005615234375
t 0.005268096923828125
▁know 0.329345703125
, 0.64599609375
▁but 0.273193359375
▁I 0.7724609375
▁keep 5.25390625
▁be 5.98046875
ating 0.043060302734375
▁it 0.9453125
, 1.9091796875
▁be 4.890625
ating 0.02435302734375
▁the 2.27734375
▁pole 6.0078125
▁against 2.72265625
▁whatever 6.16015625
▁resistance 7.19921875
▁I 1.435546875
▁can 0.2183837890625
▁find 0.462890625
▁in 3.341796875
▁the 0.63134765625
▁pitch 6.51953125
▁black 0.1591796875
▁del 12.765625
usion 1.3984375
. 0.69580078125
<0x0A> 0.642578125
S 4.4296875
ud 1.251953125
den 0.00021719932556152344
ly 0.0177459716796875
▁it 2.54296875
▁is 1.9951171875
▁only 5.24609375
▁the 2.359375
▁night 5.75
▁and 2.119140625
▁its 4.734375
▁dim 4.83984375
ness 3.833984375
▁that 3.4609375
▁I 1.85546875
▁am 1.75
▁seeing 4.72265625
, 1.1767578125
▁and 2.072265625
▁not 3.8046875
▁the 0.8251953125
▁end 4.23828125
▁of 0.83154296875
▁an 6.3203125
▁aby 3.83984375
ss 3.3736228942871094e-05
. 0.89990234375
▁I 1.4638671875
▁forced 10.4375
▁it 1.111328125
▁out 3.62890625
, 1.6904296875
▁somehow 5.765625
. 1.140625
▁The 3.0390625
▁int 8.4765625
ra 0.80078125
ven 0.001995086669921875
ous 0.00499725341796875
▁device 4.421875
▁is 1.6884765625
▁ru 7.2421875
ined 0.374755859375
, 0.681640625
▁and 3.126953125
▁I 1.2666015625
▁toss 5.6015625
▁it 0.239013671875
▁onto 3.6484375
▁the 0.1510009765625
▁floor 0.51171875
. 0.72412109375
▁Nothing 6.296875
▁else 2.234375
▁is 1.1923828125
▁dist 6.07421875
urbed 0.2890625
, 1.548828125
▁except 3.255859375
▁for 0.91357421875
▁my 2.361328125
▁brain 6.80859375
▁and 2.818359375
▁my 1.5029296875
▁sh 5.3203125
aking 1.34765625
▁body 2.052734375
. 0.30322265625
<0x0A> 0.347900390625
Back 6.3125
▁in 0.9501953125
▁bed 3.123046875
▁I 1.3994140625
▁know 5.69140625
▁I 0.83837890625
▁won 4.18359375
' 0.06689453125
t 0.01104736328125
▁sleep 0.90673828125
▁all 5.03515625
▁night 0.15380859375
, 0.81103515625
▁that 4.84375
' 2.041015625
s 0.00971221923828125
▁not 2.837890625
▁good 4.58984375
▁for 1.671875
▁the 2.103515625
▁recovery 6.42578125
, 1.779296875
▁not 4.3359375
▁good 0.7568359375
▁for 0.273681640625
▁the 1.041015625
▁tests 7.48828125
▁and 2.6796875
▁n 6.609375
urs 0.235107421875
es 0.48828125
, 1.8212890625
▁but 2.4921875
▁I 0.70703125
▁did 6.09375
▁something 4.359375
▁to 3.404296875
▁save 3.267578125
▁myself 1.294921875
, 1.51953125
▁maybe 3.767578125
▁one 6.51171875
▁day 1.10546875
▁I 0.68798828125
' 0.7216796875
ll 0.0169219970703125
▁sleep 5.01171875
▁again 2.759765625
. 0.43359375
▁The 4.35546875
▁battle 7.90625
▁with 2.357421875
▁cancer 2.857421875
▁is 1.1474609375
▁going 4.23046875
▁on 1.5048828125
▁no 6.87109375
▁matter 0.5
▁what 0.5
, 1.181640625
▁so 3.40625
▁let 4.109375
▁whatever 8.7421875
▁mon 3.681640625
sters 2.763671875
▁come 1.685546875
▁after 4.89453125
▁me 0.462646484375
. 2.390625
