▁Although 10.375
▁some 8.25
▁people 4.68359375
▁says 10.09375
▁young 7.8671875
▁people 2.3984375
▁should 5.6640625
▁not 4.91015625
▁enjoy 8.109375
▁life 4.8515625
▁more 6.12109375
▁than 2.55859375
▁older 7.34375
▁people 2.5859375
▁do 5.1875
, 4.1015625
▁I 4.72265625
▁agree 5.484375
▁that 2.501953125
▁young 5.046875
▁pe 6.03515625
ole 2.87109375
▁enjoy 6.609375
▁life 0.8076171875
▁more 1.705078125
▁than 0.21142578125
▁older 0.97119140625
▁people 0.4990234375
▁do 0.269287109375
. 2.126953125
▁Because 5.5625
▁of 2.314453125
▁ 6.2890625
2 1.65234375
▁reasons 4.79296875
: 2.224609375
▁kn 12.3359375
ouw 10.5078125
ledge 6.2578125
▁and 1.119140625
▁health 4.59765625
. 0.943359375
<0x0A> 1.8876953125
▁First 10.8828125
▁of 1.666015625
▁all 0.0260467529296875
, 0.31884765625
▁naturally 10.234375
, 1.1103515625
▁young 3.734375
▁people 0.22900390625
▁have 1.7880859375
▁more 1.298828125
▁less 7.6171875
▁knowledge 1.962890625
▁than 1.4609375
▁old 2.091796875
▁people 0.16455078125
. 0.98291015625
▁For 2.98828125
▁example 0.25927734375
, 0.1700439453125
▁s 8.828125
io 9.375
ci 7.08203125
ety 0.096435546875
, 1.7021484375
▁some 6.625
▁act 8.5234375
ives 2.376953125
, 0.869140625
▁and 2.109375
▁many 3.3125
▁things 2.3984375
. 1.02734375
▁Therefore 4.15625
▁young 3.7265625
▁people 0.265380859375
▁should 3.158203125
▁experience 7.26953125
▁many 3.65625
▁things 0.61279296875
. 1.8876953125
▁But 4.08203125
▁they 2.828125
▁s 6.70703125
ould 1.857421875
n 1.8662109375
' 0.0928955078125
t 0.00994873046875
▁aff 12.2734375
raid 0.79638671875
▁to 1.5693359375
▁fail 5.8359375
. 1.0498046875
▁They 2.291015625
▁should 0.83154296875
▁enjoy 4.11328125
▁every 3.8359375
▁new 5.46484375
▁experiences 3.74609375
. 0.71142578125
<0x0A> 0.95263671875
▁Second 0.46728515625
▁of 1.21484375
▁all 0.01404571533203125
, 0.0286102294921875
▁generally 7.03515625
, 0.420654296875
▁most 5.4453125
▁of 1.0009765625
▁young 0.92724609375
▁people 0.25244140625
▁have 1.0927734375
▁health 1.3369140625
▁body 10.3203125
. 0.75732421875
▁And 3.095703125
▁in 4.98828125
▁future 5.46875
, 0.415771484375
▁we 3.728515625
▁need 3.123046875
▁to 0.81103515625
▁keep 2.98828125
▁our 1.0703125
▁health 0.66796875
▁so 4.51953125
▁people 6.2109375
▁who 4.25390625
▁can 3.849609375
▁move 8.1640625
▁their 3.595703125
▁body 0.74951171875
▁activity 7.3671875
- 6.91796875
▁young 8.15625
▁people 0.40673828125
- 5.15234375
▁should 2.8984375
▁develop 6.30078125
▁their 1.18359375
▁health 1.4013671875
. 0.90771484375
▁However 6.03515625
▁stress 11.71875
▁leads 7.375
▁people 2.92578125
▁bad 7.375
▁condition 4.19921875
▁so 3.814453125
▁they 2.21875
▁should 1.1953125
▁enjoy 3.62890625
▁life 0.88037109375
. 1.818359375
<0x0A> 1.0927734375
▁For 4.12109375
▁these 5.42578125
▁reasons 0.57666015625
, 0.2666015625
▁I 1.5986328125
▁agree 1.46484375
▁that 0.473876953125
▁young 0.1611328125
▁people 0.43310546875
▁enjoy 3.05859375
▁life 0.1309814453125
▁than 4.140625
▁older 0.29052734375
▁people 0.10235595703125
▁do 0.65283203125
. 0.2310791015625
