▁Introduction 10.375
: 6.51171875
<0x0A> 3.98046875
P 4.65234375
reg 5.70703125
n 0.56494140625
ancy 0.00812530517578125
▁is 1.900390625
▁a 0.71240234375
▁cru 5.7265625
cial 0.00872802734375
▁period 1.6826171875
▁during 3.400390625
▁which 0.410888671875
▁both 4.09375
▁the 0.98291015625
▁mother 0.52294921875
▁and 0.11676025390625
▁the 0.59765625
▁developing 3.96875
▁fet 0.63134765625
us 0.0035610198974609375
▁are 0.86572265625
▁sus 4.59375
cept 0.0002658367156982422
ible 0.0013189315795898438
▁to 0.016204833984375
▁various 2.6875
▁ris 3.40625
ks 0.0028133392333984375
▁and 2.1484375
▁consequences 5.234375
. 0.62255859375
▁Fail 8.7109375
ing 1.830078125
▁to 0.052703857421875
▁take 2.134765625
▁fol 9.7109375
ic 0.0226287841796875
▁acid 0.00922393798828125
▁supp 0.96484375
lement 0.0013818740844726562
s 0.250244140625
▁during 1.328125
▁this 1.7138671875
▁time 1.6728515625
▁can 1.1484375
▁have 1.8935546875
▁det 3.6875
r 0.0019817352294921875
iment 0.00017702579498291016
al 0.001064300537109375
▁effects 0.60888671875
, 3.623046875
▁including 2.470703125
▁increased 3.603515625
▁ris 2.060546875
ks 9.620189666748047e-05
▁of 0.15185546875
▁birth 1.7841796875
▁defect 0.0239410400390625
s 0.005428314208984375
▁and 1.4833984375
▁chrom 6.27734375
os 0.0006585121154785156
om 0.05029296875
al 0.0048828125
▁dis 2.248046875
orders 0.03173828125
. 0.3857421875
▁This 3.61328125
▁ess 6.55078125
ay 0.001438140869140625
▁will 0.7587890625
▁analyze 3.11328125
▁the 0.417724609375
▁potential 4.078125
▁ris 1.923828125
ks 0.00022590160369873047
▁and 1.189453125
▁consequences 1.4150390625
▁associated 1.9296875
▁with 0.010040283203125
▁the 1.9580078125
▁absence 3.822265625
▁of 0.07421875
▁fol 0.138427734375
ic 0.0160064697265625
▁acid 0.00757598876953125
▁supp 0.6044921875
lement 0.00029969215393066406
ation 1.2216796875
, 2.896484375
▁highlight 4.7890625
ing 0.33984375
▁the 0.5263671875
▁importance 1.591796875
▁of 0.045379638671875
▁mat 5.43359375
ernal 0.0116729736328125
▁ser 7.23828125
um 0.039093017578125
▁marker 9.7109375
▁tests 2.82421875
▁in 1.8046875
▁ident 2.650390625
ifying 0.0005950927734375
▁these 3.73828125
▁issues 4.84375
. 0.387451171875
▁Additionally 3.80859375
, 0.0052490234375
▁it 2.00390625
▁will 0.044708251953125
▁propose 4.59765625
▁a 1.44140625
▁compreh 4.24609375
ensive 0.004154205322265625
▁plan 2.67578125
▁of 1.2900390625
▁care 4.01171875
▁that 1.68359375
▁incorpor 3.767578125
ates 0.002437591552734375
▁education 5.015625
▁on 2.92578125
▁t 9.78125
anning 6.015625
- 4.4921875
related 0.5634765625
▁ris 1.369140625
ks 9.5367431640625e-05
, 0.77783203125
▁such 5.18359375
▁as 0.006031036376953125
▁skin 1.37109375
▁cancer 0.0841064453125
. 2.591796875
▁This 3.345703125
▁ess 1.78125
ay 0.0007481575012207031
▁will 0.279541015625
▁also 1.740234375
▁explore 3.212890625
▁the 0.428466796875
▁vulner 9.34375
ability 0.8759765625
▁of 0.1407470703125
▁the 1.9208984375
▁fet 1.5029296875
us 0.006134033203125
▁during 1.51171875
▁different 5.9765625
▁trim 5.11328125
esters 0.05621337890625
, 1.486328125
▁emphas 4.30078125
izing 0.0150604248046875
▁the 0.2705078125
▁role 5.58203125
▁of 0.250732421875
▁fol 1.099609375
ic 0.033905029296875
▁acid 0.0070953369140625
▁supp 0.3359375
lement 0.0003502368927001953
s 1.7236328125
▁in 0.67919921875
▁mit 3.572265625
ig 2.47955322265625e-05
ating 0.0025653839111328125
▁the 1.2216796875
▁effects 2.625
▁of 0.059173583984375
▁environmental 3.650390625
▁ter 5.6484375
at 0.0225830078125
og 0.04315185546875
ens 0.0003273487091064453
. 0.76904296875
▁Last 2.509765625
ly 0.0516357421875
, 0.0020847320556640625
▁it 0.72509765625
▁will 0.01226806640625
▁examine 3.18359375
▁the 0.36279296875
▁impact 3.943359375
▁of 0.251220703125
▁U 7.6796875
VA 2.341796875
▁and 1.384765625
▁U 0.09637451171875
VB 0.008026123046875
▁ray 1.3525390625
s 0.08184814453125
▁in 3.30078125
▁the 1.53125
▁process 5.38671875
▁of 0.020599365234375
▁on 8.2109375
c 2.291015625
ogen 0.053680419921875
esis 0.0379638671875
▁in 2.998046875
▁skin 6.26953125
▁cells 3.373046875
. 0.8125
<0x0A> 0.8486328125
Body 8.109375
: 3.66796875
<0x0A> 1.505859375
1 3.6953125
. 0.2076416015625
▁Ris 5.609375
ks 0.00341796875
▁and 1.1279296875
▁Con 0.50341796875
sequ 7.808208465576172e-05
ences 0.0006208419799804688
▁of 0.66162109375
▁Not 3.33203125
▁T 0.10919189453125
aking 0.06341552734375
▁Fol 0.05255126953125
ic 0.00669097900390625
▁Ac 0.0221710205078125
id 0.0017232894897460938
▁Supp 0.45068359375
lement 0.00026226043701171875
s 0.04266357421875
: 3.142578125
<0x0A> 0.1400146484375
D 3.642578125
uring 0.279296875
▁pre 0.94189453125
gn 0.0038280487060546875
ancy 0.0034637451171875
, 0.025970458984375
▁the 1.2568359375
▁absence 7.8515625
▁of 0.01267242431640625
▁fol 0.106201171875
ic 0.01300048828125
▁acid 0.0045928955078125
▁supp 0.247314453125
lement 0.0001138448715209961
ation 1.2421875
▁can 0.6591796875
▁lead 1.8876953125
▁to 0.0036907196044921875
▁severe 3.771484375
▁birth 1.6689453125
▁defect 0.039764404296875
s 0.00267791748046875
, 1.2822265625
▁including 0.71337890625
▁neural 1.4912109375
▁t 0.044403076171875
ube 9.298324584960938e-06
▁defect 0.025115966796875
s 0.003536224365234375
▁( 0.681640625
NT 0.1695556640625
D 0.0250396728515625
s 0.16162109375
) 1.28125
▁such 1.7587890625
▁as 0.00139617919921875
▁sp 0.205322265625
ina 0.00969696044921875
▁b 0.004428863525390625
if 0.0002655982971191406
ida 0.0016765594482421875
▁and 1.0224609375
▁an 0.1856689453125
ence 0.0263214111328125
ph 0.00492095947265625
aly 0.0005025863647460938
. 0.334228515625
▁These 1.765625
▁defect 1.0771484375
s 0.00024330615997314453
▁occur 2.37109375
▁when 0.486083984375
▁the 0.449462890625
▁neural 1.255859375
▁t 0.045013427734375
ube 0.0020694732666015625
, 1.70703125
▁which 0.44677734375
▁ultimately 9.0703125
▁forms 1.7890625
▁the 0.033111572265625
▁sp 1.048828125
inal 0.3974609375
▁cord 0.12030029296875
▁and 0.1158447265625
▁brain 0.321533203125
, 0.07574462890625
▁does 0.5302734375
▁not 0.000213623046875
▁develop 1.6591796875
▁properly 0.40234375
. 0.8681640625
▁Furthermore 4.8671875
, 0.0006055831909179688
▁in 3.87109375
ade 1.2314453125
qu 0.0010786056518554688
ate 0.010498046875
▁fol 0.25830078125
ic 0.0775146484375
▁acid 0.0016202926635742188
▁int 1.4375
ake 0.005344390869140625
▁increases 5.36328125
▁the 0.07196044921875
▁risk 0.12371826171875
▁of 0.0518798828125
▁chrom 4.640625
os 0.0010042190551757812
om 0.02386474609375
al 0.0025272369384765625
▁dis 0.609375
orders 0.006145477294921875
, 0.7568359375
▁not 9.9375
ably 0.1011962890625
▁Down 1.0458984375
▁synd 0.276123046875
rome 0.0003616809844970703
▁through 10.265625
▁n 6.30859375
ond 0.6923828125
is 0.07293701171875
j 0.00389862060546875
unction 0.002727508544921875
▁events 5.09765625
▁during 2.30078125
▁cell 1.24609375
▁division 0.11383056640625
. 0.283447265625
▁These 2.6015625
▁ris 2.251953125
ks 0.0014276504516601562
▁can 1.7099609375
▁have 2.259765625
▁lif 3.68359375
el 0.0003027915954589844
ong 3.635883331298828e-05
▁imp 1.7451171875
lications 0.001953125
▁for 0.5673828125
▁both 1.443359375
▁the 0.282958984375
▁child 3.7109375
▁and 0.0787353515625
▁the 0.329833984375
▁family 3.732421875
, 1.080078125
▁stress 11.046875
ing 0.01331329345703125
▁the 0.050445556640625
▁importance 0.255859375
▁of 0.00795745849609375
▁fol 0.73681640625
ic 0.012542724609375
▁acid 0.0076751708984375
▁supp 0.076171875
lement 0.00021278858184814453
ation 0.1158447265625
. 1.7890625
<0x0A> 0.418212890625
2 1.0986328125
. 0.005428314208984375
▁Mat 2.216796875
ernal 0.00847625732421875
▁Ser 0.3720703125
um 0.00044727325439453125
▁Mark 0.5380859375
er 0.08526611328125
▁Test 0.07415771484375
s 0.12396240234375
: 0.748046875
<0x0A> 0.026031494140625
Mat 1.76171875
ernal 0.00727081298828125
▁ser 0.0841064453125
um 0.0006384849548339844
▁marker 0.40380859375
▁tests 0.1014404296875
▁offer 6.0234375
▁a 0.86083984375
▁valuable 2.92578125
▁tool 0.77783203125
▁to 2.50390625
▁assess 2.341796875
▁the 0.427978515625
▁ris 3.26171875
ks 0.0002663135528564453
▁of 0.6826171875
▁birth 2.62109375
▁defect 0.01093292236328125
s 0.0021533966064453125
▁and 1.0947265625
▁chrom 0.5458984375
os 0.0004024505615234375
om 0.00691986083984375
al 0.0009136199951171875
▁dis 0.09478759765625
orders 0.004116058349609375
▁during 1.6689453125
▁pre 0.0787353515625
gn 0.001316070556640625
ancy 0.0014371871948242188
. 0.10821533203125
▁These 0.69970703125
▁tests 0.149658203125
▁measure 2.734375
▁specific 3.232421875
▁subst 4.62109375
ances 0.0021419525146484375
▁in 0.5595703125
▁the 0.416015625
▁expect 8.421875
ant 0.00159454345703125
▁mother 0.0438232421875
' 0.01123809814453125
s 0.0004978179931640625
▁blood 0.221923828125
, 1.2978515625
▁such 0.96630859375
▁as 0.0007309913635253906
▁alpha 3.25390625
- 0.10406494140625
f 0.03448486328125
et 0.0217742919921875
op 0.000652313232421875
rote 0.0007319450378417969
in 0.015625
▁( 0.2568359375
AF 0.01549530029296875
P 0.00016570091247558594
), 0.63427734375
▁human 2.818359375
▁ch 0.135986328125
or 0.0006203651428222656
ionic 0.0049285888671875
▁g 0.006412506103515625
on 0.0010318756103515625
ad 0.0030193328857421875
otrop 0.0208282470703125
in 0.01104736328125
▁( 0.0281982421875
h 0.1070556640625
CG 0.0033206939697265625
), 0.09710693359375
▁and 0.53466796875
▁est 5.140625
ri 0.4306640625
ol 0.006046295166015625
. 0.7236328125
▁E 6.4765625
lev 0.1376953125
ated 0.03363037109375
▁or 5.625
▁reduced 2.44921875
▁levels 0.11138916015625
▁of 0.046600341796875
▁these 0.11907958984375
▁markers 1.0068359375
▁can 1.03125
▁indicate 0.465087890625
▁potential 3.140625
▁issues 3.310546875
, 2.6171875
▁prompt 8.1328125
ing 0.0019121170043945312
▁further 1.9306640625
▁di 2.978515625
agnostic 0.038177490234375
▁procedures 2.6015625
. 1.0498046875
▁Mat 2.73828125
ernal 0.0016307830810546875
▁ser 0.052825927734375
um 0.00016832351684570312
▁marker 0.1221923828125
▁tests 0.060882568359375
▁play 5.1015625
▁a 0.61474609375
▁cru 1.318359375
cial 0.0001709461212158203
▁role 0.00354766845703125
▁in 0.02020263671875
▁early 3.25
▁detection 0.6494140625
, 2.876953125
▁en 3.1328125
abling 0.02154541015625
▁inter 4.46875
vent 0.88330078125
ions 0.0171661376953125
▁and 2.482421875
▁medical 4.94921875
▁dec 3.921875
isions 5.078315734863281e-05
▁to 0.44873046875
▁be 0.06890869140625
▁made 0.103271484375
▁early 2.828125
▁in 1.3330078125
▁order 4.45703125
▁to 0.003643035888671875
▁optimize 3.90625
▁out 1.3974609375
comes 0.00015616416931152344
▁for 1.3798828125
▁both 0.5888671875
▁mother 1.2421875
▁and 0.0024509429931640625
▁child 0.482177734375
. 0.0164642333984375
<0x0A> 0.390380859375
3 0.34912109375
. 0.0026721954345703125
▁Edu 3.52734375
c 0.00321197509765625
ating 0.50634765625
▁on 2.9140625
▁T 0.94873046875
anning 0.002307891845703125
- 0.111572265625
Rel 0.197021484375
ated 0.00010406970977783203
▁Ris 0.100341796875
ks 7.033348083496094e-06
: 0.23828125
<0x0A> 0.0047760009765625
In 3.67578125
▁parallel 8.796875
▁to 1.05859375
▁the 1.111328125
▁discussion 3.80078125
▁on 1.16796875
▁fol 1.748046875
ic 0.013641357421875
▁acid 0.004978179931640625
, 2.92578125
▁health 6.3203125
care 0.6943359375
▁prov 0.7421875
iders 0.00027179718017578125
▁should 0.93017578125
▁inform 4.6640625
▁pre 1.818359375
gn 0.00023925304412841797
ant 0.00036978721618652344
▁women 0.129150390625
▁about 0.68408203125
▁the 0.1512451171875
▁d 1.1650390625
angers 2.586841583251953e-05
▁of 0.1658935546875
▁t 0.51953125
anning 0.00298309326171875
▁and 2.337890625
▁over 6.0390625
ex 0.1348876953125
pos 0.0012912750244140625
ure 0.0074462890625
▁to 0.07354736328125
▁ult 1.591796875
rav 0.050537109375
io 2.5153160095214844e-05
let 8.20159912109375e-05
▁( 0.93505859375
U 0.0012712478637695312
V 0.122802734375
) 0.0166015625
▁radiation 0.95263671875
. 0.475341796875
▁Pro 6.9375
long 0.638671875
ed 0.0019989013671875
▁expos 0.377685546875
ure 0.003086090087890625
▁to 0.045166015625
▁U 0.51806640625
VA 2.462890625
▁and 0.2325439453125
▁U 0.013214111328125
VB 0.0010814666748046875
▁ray 0.1058349609375
s 0.00017690658569335938
▁from 3.091796875
▁the 1.0869140625
▁sun 0.029876708984375
▁or 1.8359375
▁t 0.191162109375
anning 0.0007457733154296875
▁b 0.323486328125
eds 0.0004189014434814453
▁can 0.27490234375
▁significantly 5.1015625
▁increase 0.2166748046875
▁the 0.1124267578125
▁risk 0.1044921875
▁of 0.0325927734375
▁developing 1.6572265625
▁skin 0.489990234375
▁cancer 0.253173828125
, 0.98876953125
▁both 5.234375
▁for 3.81640625
▁the 0.2724609375
▁mother 0.54150390625
▁and 0.0494384765625
▁potentially 7.24609375
▁the 0.57666015625
▁fet 0.60302734375
us 0.00024080276489257812
. 0.0888671875
▁Through 6.39453125
▁compreh 4.4375
ensive 0.005268096923828125
▁education 0.90478515625
, 0.724609375
▁pre 3.822265625
gn 0.0018358230590820312
ant 0.003650665283203125
▁women 0.0216522216796875
▁can 0.32373046875
▁be 1.8369140625
▁emp 1.9365234375
ower 9.179115295410156e-06
ed 2.384185791015625e-05
▁to 0.07562255859375
▁protect 2.6328125
▁their 1.6455078125
▁skin 3.759765625
▁and 1.1240234375
▁avoid 2.515625
▁unnecessary 3.150390625
▁harm 2.947265625
▁by 3.935546875
▁util 4.95703125
izing 0.0015001296997070312
▁sun 0.8232421875
▁protection 2.796875
▁measures 0.450439453125
▁like 3.98828125
▁we 1.435546875
aring 0.00012123584747314453
▁broad 3.85546875
- 0.08294677734375
spect 0.040618896484375
rum 3.063678741455078e-05
▁sun 0.488037109375
screen 0.2783203125
, 1.1416015625
▁seeking 5.2734375
▁sh 0.0706787109375
ade 0.0300140380859375
, 0.71728515625
▁and 0.10467529296875
▁we 3.3828125
aring 0.00011599063873291016
▁protect 0.95849609375
ive 0.0010766983032226562
▁cl 0.1358642578125
othing 1.0848045349121094e-05
. 0.498046875
<0x0A> 1.2607421875
4 0.2861328125
. 0.001399993896484375
▁V 6.171875
ul 0.1295166015625
ner 0.005428314208984375
ability 0.08880615234375
▁of 0.06439208984375
▁the 0.1624755859375
▁F 0.06268310546875
et 0.0367431640625
us 0.00012814998626708984
▁and 4.09375
▁Ro 6.859375
le 0.01296234130859375
▁of 0.00839996337890625
▁Fol 0.30419921875
ic 0.003093719482421875
▁Ac 0.005313873291015625
id 0.0007624626159667969
▁Supp 0.178955078125
lement 0.0002815723419189453
s 0.26904296875
: 0.30908203125
<0x0A> 0.0034618377685546875
The 1.7744140625
▁vulner 3.888671875
ability 0.01494598388671875
▁of 0.01535797119140625
▁the 0.069580078125
▁fet 0.0362548828125
us 0.0002117156982421875
▁to 1.9345703125
▁ter 3.291015625
at 0.0121917724609375
og 0.16455078125
ens 0.0009212493896484375
▁var 3.962890625
ies 4.5180320739746094e-05
▁during 3.33203125
▁different 0.57275390625
▁trim 0.7451171875
esters 0.00458526611328125
. 1.19140625
▁The 2.0546875
▁first 1.462890625
▁trim 0.3720703125
ester 0.0002281665802001953
, 1.5791015625
▁considered 6.2421875
▁the 0.363525390625
▁most 1.09765625
▁critical 1.21484375
▁period 1.5419921875
, 0.89501953125
▁is 0.306884765625
▁when 2.9375
▁major 5.36328125
▁organ 2.314453125
ogen 1.7529296875
esis 0.01483917236328125
▁occurs 0.74365234375
. 1.1708984375
▁Ex 5.87890625
pos 0.26611328125
ure 0.01885986328125
▁to 0.06634521484375
▁ter 1.3681640625
at 0.01038360595703125
og 0.05609130859375
ens 5.91278076171875e-05
▁during 0.86669921875
▁this 0.2364501953125
▁time 0.73779296875
▁can 0.3173828125
▁lead 1.4521484375
▁to 0.0006623268127441406
▁struct 3.150390625
ural 0.0032596588134765625
▁ab 1.5625
normal 0.00011205673217773438
ities 0.0027027130126953125
. 5.32421875
▁Fol 3.8671875
ic 0.0115814208984375
▁acid 0.0205230712890625
▁supp 0.24267578125
lement 9.036064147949219e-05
ation 0.7060546875
▁before 4.8203125
▁conception 2.05078125
▁and 2.447265625
▁during 0.372314453125
▁early 2.177734375
▁pre 0.1549072265625
gn 8.58306884765625e-05
ancy 0.0002999305725097656
▁plays 4.8203125
▁a 0.363525390625
▁cru 0.83837890625
cial 0.0001614093780517578
▁role 0.0034008026123046875
▁in 0.017730712890625
▁mit 1.697265625
ig 4.410743713378906e-06
ating 0.0011453628540039062
▁the 0.3857421875
▁effects 0.5966796875
▁of 0.00914764404296875
▁ter 1.02734375
at 0.004169464111328125
og 0.018341064453125
ens 6.711483001708984e-05
, 1.4404296875
▁providing 5.24609375
▁essential 3.455078125
▁support 3.19921875
▁for 0.90673828125
▁proper 4.65625
▁neural 3.779296875
▁t 0.1490478515625
ube 6.592273712158203e-05
▁development 0.278076171875
▁and 1.6572265625
▁reducing 3.9453125
▁the 0.06793212890625
▁risk 0.325927734375
▁of 0.0207977294921875
▁N 3.328125
TD 0.00250244140625
s 0.031585693359375
. 0.38623046875
▁Cont 7.68359375
inu 0.6201171875
ing 1.3388671875
▁fol 2.16015625
ic 0.0206146240234375
▁acid 0.00197601318359375
▁supp 0.1380615234375
lement 6.473064422607422e-05
ation 0.074462890625
▁throughout 0.8828125
▁pre 0.2449951171875
gn 0.0001875162124633789
ancy 7.2479248046875e-05
▁provides 4.828125
▁on 5.18359375
going 0.04229736328125
▁protection 1.349609375
▁against 0.96240234375
▁potential 3.537109375
▁ter 0.4296875
at 0.0030975341796875
ogen 1.626953125
ic 0.05792236328125
▁ins 4.82421875
ult 0.0005893707275390625
s 0.0251312255859375
. 0.703125
<0x0A> 0.36328125
5 0.2406005859375
. 0.001232147216796875
▁Imp 2.6328125
act 0.12384033203125
▁of 0.043060302734375
▁U 0.436767578125
VA 0.1021728515625
▁and 0.051910400390625
▁U 0.004009246826171875
VB 0.003139495849609375
▁R 1.1201171875
ays 8.940696716308594e-06
▁on 0.410888671875
▁Sk 1.0185546875
in 0.00028061866760253906
▁C 1.619140625
ells 2.753734588623047e-05
: 0.1304931640625
<0x0A> 0.0027446746826171875
Res 6.75
earch 0.080078125
▁has 0.456298828125
▁established 3.86328125
▁that 1.2734375
▁U 1.2958984375
VA 0.1654052734375
▁and 0.15380859375
▁U 0.0065460205078125
VB 0.0023193359375
▁ray 0.1826171875
s 0.01523590087890625
▁pen 4.8984375
et 0.032196044921875
rate 8.273124694824219e-05
▁the 0.54296875
▁skin 0.22705078125
▁and 0.58740234375
▁indu 3.037109375
ce 0.0019073486328125
▁DNA 1.943359375
▁damage 0.181396484375
, 1.3056640625
▁prom 4.8359375
oting 0.00443267822265625
▁on 3.330078125
c 0.007320404052734375
ogen 0.01313018798828125
esis 0.01444244384765625
▁in 0.7900390625
▁skin 1.4326171875
▁cells 0.02630615234375
. 0.09869384765625
▁The 2.1640625
▁changes 7.578125
▁caused 2.732421875
▁by 0.044769287109375
▁U 1.0556640625
V 1.615234375
▁radiation 1.216796875
▁can 1.2080078125
▁accum 7.98046875
ulate 0.0015516281127929688
▁over 0.2496337890625
▁time 0.1446533203125
, 0.6142578125
▁leading 1.0078125
▁to 0.0021114349365234375
▁the 1.8271484375
▁development 0.505859375
▁of 0.0206298828125
▁skin 0.452392578125
▁cancer 0.787109375
. 0.64453125
▁In 3.162109375
▁the 2.509765625
▁context 2.943359375
▁of 0.0007719993591308594
▁pre 0.327392578125
gn 0.003330230712890625
ancy 0.10595703125
, 0.0200347900390625
▁the 1.6953125
▁height 8.4609375
ened 0.003910064697265625
▁sens 1.8603515625
itivity 0.00464630126953125
▁of 0.070556640625
▁the 0.428466796875
▁skin 0.7109375
▁and 2.294921875
▁h 6.671875
orm 0.033599853515625
onal 0.2093505859375
▁changes 0.278564453125
▁may 2.95703125
▁ex 3.177734375
ac 0.013519287109375
erb 0.00019299983978271484
ate 0.00041961669921875
▁the 0.28515625
▁potential 2.919921875
▁damage 3.501953125
▁caused 1.3251953125
▁by 0.017852783203125
▁U 0.314453125
V 0.8310546875
▁radiation 0.98974609375
. 0.295654296875
▁Therefore 2.150390625
, 0.005565643310546875
▁pre 1.5947265625
gn 0.0037078857421875
ant 0.00565338134765625
▁women 0.010589599609375
▁should 0.42626953125
▁dil 7.33984375
ig 0.0007181167602539062
ently 0.000583648681640625
▁protect 1.1455078125
▁their 0.53759765625
▁skin 0.01715087890625
▁from 0.447998046875
▁harm 2.826171875
ful 0.1878662109375
▁U 0.6171875
V 0.344970703125
▁radiation 1.548828125
▁to 3.8515625
▁minim 1.90234375
ize 0.0007390975952148438
▁the 0.18994140625
▁risk 0.33642578125
▁of 0.012298583984375
▁skin 1.2421875
▁cancer 0.058685302734375
. 0.6767578125
<0x0A> 0.413818359375
Con 4.203125
clusion 0.332763671875
: 0.36279296875
<0x0A> 4.16796875
The 1.6943359375
▁importance 2.892578125
▁of 0.0108642578125
▁fol 0.7216796875
ic 0.007228851318359375
▁acid 0.002227783203125
▁supp 0.12042236328125
lement 8.749961853027344e-05
ation 0.18212890625
▁during 0.611328125
▁pre 0.046630859375
gn 0.00197601318359375
ancy 0.0003018379211425781
▁cannot 0.6962890625
▁be 0.0017099380493164062
▁over 0.427490234375
st 0.226318359375
ated 0.00010144710540771484
, 2.20703125
▁as 0.6240234375
▁it 0.2452392578125
▁can 1.2607421875
▁significantly 1.9375
▁reduce 0.36181640625
▁the 0.0222625732421875
▁ris 2.02734375
ks 7.581710815429688e-05
▁of 0.1636962890625
▁birth 0.53125
▁defect 0.003948211669921875
s 0.00044417381286621094
▁and 0.1270751953125
▁chrom 0.09423828125
os 0.0005078315734863281
om 0.0014162063598632812
al 0.0003170967102050781
▁dis 0.04241943359375
orders 0.0010967254638671875
. 0.158447265625
▁By 3.19140625
▁ens 3.17578125
uring 4.875659942626953e-05
▁expect 10.140625
ant 0.0005521774291992188
▁moth 0.12646484375
ers 2.6226043701171875e-06
▁are 0.9169921875
▁educated 2.935546875
▁about 2.0
▁the 0.49609375
▁potential 2.05859375
▁consequences 2.755859375
▁of 0.091064453125
▁not 1.5244140625
▁taking 0.0662841796875
▁fol 0.1273193359375
ic 0.0026950836181640625
▁acid 0.003604888916015625
▁supp 0.1046142578125
lement 6.175041198730469e-05
s 0.057220458984375
, 0.29443359375
▁health 0.478515625
care 0.0302734375
▁prov 0.1578369140625
iders 5.316734313964844e-05
▁can 0.1834716796875
▁emp 1.2255859375
ower 0.00013399124145507812
▁them 1.349609375
▁to 0.1614990234375
▁make 0.6181640625
▁informed 0.2216796875
▁choices 3.04296875
▁about 1.48046875
▁their 0.1160888671875
▁health 0.332275390625
▁and 0.94970703125
▁the 1.65625
▁well 2.54296875
- 0.377685546875
be 0.0008406639099121094
ing 6.61611557006836e-05
▁of 0.00044155120849609375
▁their 0.03753662109375
▁b 2.845703125
ab 0.00039839744567871094
ies 0.0003292560577392578
. 0.01309967041015625
▁Additionally 0.8212890625
, 0.0004534721374511719
▁it 2.26953125
▁is 0.205810546875
▁cru 1.849609375
cial 0.0026950836181640625
▁to 0.5087890625
▁incorpor 4.58203125
ate 0.002452850341796875
▁education 0.72998046875
▁on 0.11431884765625
▁t 0.31689453125
anning 0.0006427764892578125
- 0.0333251953125
related 0.0074310302734375
▁ris 0.0236053466796875
ks 5.602836608886719e-06
▁to 3.265625
▁encou 5.328125
rage 4.410743713378906e-06
▁pre 3.125
gn 0.002185821533203125
ant 0.0006518363952636719
▁women 0.0079803466796875
▁to 0.0233154296875
▁protect 1.76953125
▁their 0.356201171875
▁skin 0.0185546875
▁from 0.8408203125
▁U 2.322265625
VA 1.1708984375
▁and 0.022369384765625
▁U 0.000865936279296875
VB 0.0019083023071289062
▁ray 0.2431640625
s 0.0043182373046875
, 1.6181640625
▁less 10.1953125
ening 0.09161376953125
▁the 0.2196044921875
▁potential 1.6162109375
▁for 1.353515625
▁skin 0.7099609375
▁cancer 0.09100341796875
▁development 3.21484375
. 0.1396484375
▁By 2.919921875
▁address 3.85546875
ing 1.7881393432617188e-05
▁these 0.845703125
▁concerns 2.966796875
▁and 2.6953125
▁emphas 5.0390625
izing 0.004299163818359375
▁the 0.08929443359375
▁significance 4.94921875
▁of 0.0032978057861328125
▁fol 0.68505859375
ic 0.004817962646484375
▁acid 0.0028820037841796875
▁supp 0.07659912109375
lement 6.0677528381347656e-05
ation 0.231201171875
, 0.406494140625
▁health 0.505859375
care 0.023834228515625
▁prov 0.14697265625
iders 9.655952453613281e-06
▁can 0.1270751953125
▁collect 9.8984375
ively 0.003932952880859375
▁work 2.80078125
▁towards 0.9541015625
▁impro 1.921875
ving 5.841255187988281e-05
▁mat 1.7744140625
ernal 0.0008816719055175781
▁and 0.435546875
▁f 0.98095703125
etal 0.0001499652862548828
▁out 1.8251953125
comes 0.0001932382583618164
. 0.841796875
