▁Date 10.375
: 4.36328125
▁[ 5.4609375
Insert 4.8359375
▁Date 1.859375
] 1.2705078125
<0x0A> 1.7880859375
In 4.6328125
▁a 4.01953125
▁shock 7.94921875
ing 0.208740234375
▁turn 1.6220703125
▁of 0.060821533203125
▁events 0.00798797607421875
, 0.2144775390625
▁Mol 9.640625
son 4.69921875
▁Bre 6.65625
wer 0.0215911865234375
ies 0.6220703125
, 2.1015625
▁one 3.275390625
▁of 0.01129150390625
▁the 0.48876953125
▁leading 3.978515625
▁bre 1.5810546875
wing 1.916015625
▁companies 0.45703125
▁in 0.220947265625
▁the 0.7578125
▁market 5.95703125
, 0.412841796875
▁has 0.73974609375
▁lost 6.46875
▁the 1.9541015625
▁exclusive 3.74609375
▁rights 0.76171875
▁to 0.2276611328125
▁bre 1.4619140625
w 0.015167236328125
▁the 2.0078125
▁highly 5.0390625
▁popular 0.82666015625
▁Co 3.107421875
ors 0.007389068603515625
▁Light 0.428466796875
▁be 0.689453125
er 0.0214691162109375
. 1.0654296875
▁Following 6.0859375
▁the 0.98583984375
▁announ 2.642578125
cement 0.007183074951171875
, 0.66943359375
▁the 1.609375
▁company 1.6962890625
' 2.09765625
s 0.00028133392333984375
▁shares 1.34765625
▁took 3.421875
▁a 0.07171630859375
▁significant 3.33203125
▁pl 2.8515625
unge 0.0292816162109375
, 1.21875
▁raising 7.3984375
▁concerns 1.33203125
▁among 2.025390625
▁invest 0.763671875
ors 0.0059051513671875
▁and 1.95703125
▁be 3.740234375
er 0.07501220703125
▁enthus 1.6533203125
iast 0.0002765655517578125
s 0.02459716796875
▁al 1.185546875
ike 5.614757537841797e-05
. 0.10601806640625
<0x0A> 0.5947265625
Co 3.357421875
ors 0.0015268325805664062
▁Light 0.1932373046875
, 1.439453125
▁a 1.4716796875
▁long 5.09765625
- 0.416748046875
standing 0.93310546875
▁favorite 2.1484375
▁among 1.0556640625
▁be 0.6474609375
er 0.00998687744140625
▁lo 1.404296875
vers 0.0011281967163085938
, 0.44970703125
▁has 1.208984375
▁been 0.60205078125
▁a 2.56640625
▁prominent 5.97265625
▁brand 1.19140625
▁for 1.51171875
▁Mol 0.630859375
son 0.0010442733764648438
▁Bre 0.85986328125
wer 0.0003731250762939453
ies 0.0187225341796875
▁for 1.048828125
▁years 2.416015625
. 0.24853515625
▁However 1.1962890625
, 0.000629425048828125
▁a 4.05078125
▁recent 0.265625
▁decision 1.607421875
▁by 0.25732421875
▁the 0.432861328125
▁Co 5.59765625
ors 0.0011739730834960938
▁B 1.06640625
rew 0.0005278587341308594
ing 0.010162353515625
▁Company 0.08740234375
, 2.02734375
▁a 2.0859375
▁subs 0.364013671875
idi 0.0002963542938232422
ary 1.1682510375976562e-05
▁of 0.021728515625
▁the 4.27734375
▁mult 7.69921875
in 0.0130615234375
ational 4.887580871582031e-05
▁bre 1.9697265625
wing 0.0892333984375
▁giant 2.091796875
, 3.072265625
▁Mol 1.9697265625
son 0.0002582073211669922
▁Co 0.65234375
ors 0.0007543563842773438
▁B 0.8173828125
ever 1.9658203125
age 0.0309906005859375
▁Company 0.1717529296875
, 0.121337890625
▁has 0.69775390625
▁shift 7.09765625
ed 0.00013577938079833984
▁the 0.307861328125
▁bre 3.802734375
wing 0.53125
▁rights 0.296630859375
, 5.796875
▁impact 8.1015625
ing 0.0013675689697265625
▁Mol 1.376953125
son 0.00039649009704589844
▁Bre 0.78662109375
wer 0.00022721290588378906
ies 0.0421142578125
' 0.5966796875
▁standing 6.50390625
▁in 0.8916015625
▁the 0.038482666015625
▁compet 5.109375
itive 0.0008969306945800781
▁market 0.8486328125
. 0.254150390625
<0x0A> 0.257568359375
The 1.2255859375
▁move 3.482421875
▁has 1.400390625
▁spark 2.6953125
ed 5.0067901611328125e-05
▁a 1.78515625
▁fl 2.68359375
ur 0.0007557868957519531
ry 2.2172927856445312e-05
▁of 0.0010986328125
▁spec 0.6953125
ulation 0.05133056640625
▁and 1.693359375
▁questions 4.15234375
▁regarding 2.248046875
▁the 0.311279296875
▁motiv 7.3125
ations 0.3720703125
▁behind 0.52880859375
▁the 0.2978515625
▁decision 0.546875
, 1.6513671875
▁as 1.3955078125
▁well 0.07666015625
▁as 0.00263214111328125
▁the 0.591796875
▁future 1.3447265625
▁imp 4.0703125
lications 0.002712249755859375
▁for 0.720703125
▁Mol 0.7216796875
son 0.0002696514129638672
▁Bre 0.1595458984375
wer 0.0001468658447265625
ies 0.01371002197265625
. 0.6298828125
▁Anal 8.84375
yst 0.005504608154296875
s 0.001148223876953125
▁have 1.716796875
▁been 2.330078125
▁closely 3.970703125
▁watching 1.2265625
▁the 0.30517578125
▁company 2.98046875
' 0.08514404296875
s 4.9114227294921875e-05
▁performance 2.59765625
, 2.267578125
▁stress 11.328125
ing 0.0265960693359375
▁the 0.88134765625
▁need 1.8076171875
▁for 0.278564453125
▁swift 3.166015625
▁action 0.418701171875
▁to 1.130859375
▁address 2.546875
▁this 5.2109375
▁significant 3.15625
▁set 1.859375
back 0.0019063949584960938
. 0.09478759765625
<0x0A> 0.220703125
M 2.236328125
ol 0.055877685546875
son 0.0003883838653564453
▁Bre 0.293701171875
wer 0.00019419193267822266
ies 0.01209259033203125
' 2.0078125
▁shares 2.056640625
▁t 5.4609375
umbled 0.034423828125
▁by 1.9765625
▁an 5.8671875
▁alarm 2.462890625
ing 0.005710601806640625
▁[ 12.2734375
Insert 1.1669921875
▁percentage 2.830078125
] 1.044921875
▁following 1.318359375
▁the 0.0679931640625
▁announ 0.256591796875
cement 0.0003635883331298828
. 1.3828125
▁In 2.244140625
vest 0.56787109375
ors 0.051116943359375
▁expressed 3.58203125
▁disappoint 4.12890625
ment 0.0005288124084472656
▁and 1.5712890625
▁concern 1.01953125
▁over 0.5009765625
▁the 0.06854248046875
▁potential 2.166015625
▁long 4.5390625
- 0.005168914794921875
term 0.003948211669921875
▁consequences 2.9609375
▁of 0.568359375
▁losing 2.248046875
▁such 3.86328125
▁a 0.21875
▁major 2.912109375
▁re 4.0
venue 0.004062652587890625
▁stream 0.93603515625
. 0.25244140625
▁The 2.275390625
▁company 1.3818359375
▁now 6.79296875
▁faces 0.2626953125
▁the 1.2587890625
▁da 2.42578125
un 0.0002894401550292969
ting 3.9458274841308594e-05
▁task 0.216796875
▁of 0.00032520294189453125
▁res 6.49609375
h 0.78271484375
aping 0.1298828125
▁its 0.08575439453125
▁bre 4.1328125
wing 0.01470947265625
▁capabilities 4.765625
▁and 0.59765625
▁finding 2.8125
▁an 3.90234375
▁innov 4.21875
ative 0.0005898475646972656
▁solution 1.076171875
▁to 0.2474365234375
▁fill 4.36328125
▁the 0.1541748046875
▁void 0.716796875
▁left 0.276123046875
▁by 0.0345458984375
▁Co 1.40234375
ors 0.001079559326171875
▁Light 0.20556640625
' 1.1865234375
s 0.0004706382751464844
▁departure 1.8525390625
. 0.2197265625
<0x0A> 0.06634521484375
Ind 6.1328125
ust 0.51708984375
ry 0.03204345703125
▁ins 3.896484375
iders 0.01116180419921875
▁suggest 4.625
▁that 0.084228515625
▁Co 3.814453125
ors 0.00048279762268066406
▁B 3.767578125
rew 0.002513885498046875
ing 0.0012693405151367188
▁Company 0.0634765625
' 0.94970703125
s 0.00018084049224853516
▁decision 0.2152099609375
▁may 2.2421875
▁have 0.7783203125
▁been 0.07305908203125
▁motiv 1.2412109375
ated 1.7762184143066406e-05
▁by 0.0070953369140625
▁a 1.41015625
▁desire 0.40625
▁to 0.056243896484375
▁explore 5.45703125
▁alternative 3.5859375
▁bre 3.02734375
wing 0.0204315185546875
▁arrang 7.60546875
ements 3.516674041748047e-05
▁to 3.671875
▁ensure 2.216796875
▁greater 4.95703125
▁market 2.916015625
▁pen 2.859375
etr 0.0008296966552734375
ation 7.30752944946289e-05
▁and 1.0146484375
▁profit 2.00390625
ability 0.03466796875
. 0.310302734375
▁As 4.265625
▁main 11.8046875
stream 0.326171875
▁be 0.60791015625
er 0.1494140625
▁consumption 1.576171875
▁continues 0.78125
▁to 0.01361846923828125
▁face 7.375
▁press 4.453125
ures 0.001277923583984375
▁from 0.161865234375
▁the 2.74609375
▁expand 6.6015625
ing 3.981590270996094e-05
▁craft 2.501953125
▁be 0.49658203125
er 0.0072784423828125
▁market 0.72509765625
▁and 2.431640625
▁changing 1.412109375
▁consumer 0.285400390625
▁prefer 0.81005859375
ences 4.172325134277344e-06
, 0.021392822265625
▁companies 3.75390625
▁must 2.419921875
▁adapt 2.23046875
▁and 2.4765625
▁make 6.85546875
▁strateg 0.62548828125
ic 0.0026531219482421875
▁moves 1.6572265625
▁to 0.363037109375
▁stay 1.591796875
▁relevant 1.2861328125
. 0.67626953125
<0x0A> 0.19384765625
Recogn 9.328125
izing 0.094482421875
▁the 0.371337890625
▁importance 1.443359375
▁of 0.010498046875
▁maintain 2.384765625
ing 0.00012052059173583984
▁sales 8.3671875
▁momentum 1.4658203125
, 0.64794921875
▁Mol 0.52783203125
son 0.00012969970703125
▁Bre 0.06036376953125
wer 7.581710815429688e-05
ies 0.004634857177734375
▁is 1.7421875
▁act 3.134765625
ively 8.344650268554688e-07
▁considering 4.49609375
▁its 2.7265625
▁options 0.174072265625
▁for 2.087890625
▁replacing 5.421875
▁Co 0.19677734375
ors 0.000690460205078125
▁Light 0.02886962890625
. 0.900390625
▁The 1.2587890625
▁company 0.1229248046875
▁has 0.775390625
▁already 1.5185546875
▁started 2.798828125
▁expl 1.0380859375
oring 0.00200653076171875
▁partners 3.724609375
hips 0.06793212890625
▁and 1.654296875
▁lic 2.73828125
ens 0.0133514404296875
ing 7.796287536621094e-05
▁arrang 1.9931640625
ements 7.867813110351562e-06
▁with 0.31787109375
▁other 0.23828125
▁well 3.99609375
- 0.0019989013671875
est 1.552734375
ab 0.00055694580078125
lished 0.00011026859283447266
▁br 1.0146484375
ands 6.794929504394531e-06
▁in 1.52734375
▁an 1.5224609375
▁attempt 1.564453125
▁to 0.0007271766662597656
▁minim 5.78515625
ize 0.0003829002380371094
▁the 0.5478515625
▁impact 0.88720703125
▁of 0.326171875
▁this 1.9619140625
▁unexpected 3.23828125
▁blow 4.515625
. 0.348388671875
▁However 2.220703125
, 0.0005335807800292969
▁it 1.4541015625
▁remains 0.79443359375
▁uncertain 2.73828125
▁whether 0.47802734375
▁these 0.77734375
▁efforts 0.50439453125
▁will 0.0259857177734375
▁yield 3.53125
▁results 2.580078125
▁in 2.0390625
▁time 0.89453125
▁to 1.3837890625
▁offset 3.013671875
▁the 0.11761474609375
▁potential 2.837890625
▁decl 4.296875
ine 0.01047515869140625
▁in 0.0182647705078125
▁sales 0.486328125
. 0.814453125
<0x0A> 0.048187255859375
S 5.2109375
ever 0.97509765625
al 0.006832122802734375
▁industry 1.9990234375
▁exper 0.485595703125
ts 5.960464477539062e-07
▁argue 5.3515625
▁that 0.005889892578125
▁the 1.490234375
▁loss 2.57421875
▁of 0.008056640625
▁Co 0.83642578125
ors 0.0003604888916015625
▁Light 0.017120361328125
' 1.6669921875
s 0.002811431884765625
▁bre 3.49609375
wing 0.01120758056640625
▁rights 0.072509765625
▁not 8.3046875
▁only 0.00876617431640625
▁affect 1.8310546875
s 0.017333984375
▁Mol 0.22509765625
son 0.0001251697540283203
▁Bre 0.0193328857421875
wer 7.009506225585938e-05
ies 0.01381683349609375
' 1.3642578125
▁financial 2.419921875
▁standing 2.208984375
▁but 0.2177734375
▁also 0.091064453125
▁ra 3.54296875
ises 0.0001862049102783203
▁concerns 1.3515625
▁about 0.232177734375
▁the 0.415771484375
▁company 2.841796875
' 0.0030384063720703125
s 8.845329284667969e-05
▁future 1.9111328125
▁reputation 8.3046875
▁and 1.0947265625
▁market 2.638671875
▁share 2.5078125
. 0.35107421875
▁Co 3.982421875
ors 0.0007495880126953125
▁Light 0.0726318359375
▁has 1.62109375
▁maintained 7.05078125
▁a 0.81787109375
▁loyal 1.83203125
▁customer 1.974609375
▁base 0.0201568603515625
▁over 1.0576171875
▁the 0.162353515625
▁years 0.06329345703125
, 0.5234375
▁and 0.73876953125
▁consum 6.265625
ers 6.246566772460938e-05
' 3.17578125
▁reaction 5.7890625
▁to 0.11907958984375
▁such 3.97265625
▁a 0.228759765625
▁significant 1.4111328125
▁change 0.908203125
▁in 1.373046875
▁bre 2.33984375
wing 0.0355224609375
▁arrang 1.0888671875
ements 1.4066696166992188e-05
▁could 0.91064453125
▁influence 4.68359375
▁their 0.491455078125
▁purch 1.466796875
asing 0.00977325439453125
▁dec 0.354736328125
isions 7.3909759521484375e-06
. 1.3046875
▁The 3.95703125
▁challenge 6.5390625
▁for 0.9541015625
▁Mol 0.08819580078125
son 5.9604644775390625e-05
▁Bre 0.006561279296875
wer 3.8623809814453125e-05
ies 0.00385284423828125
▁lies 2.30078125
▁in 0.0258331298828125
▁retain 4.57421875
ing 7.49826431274414e-05
▁the 2.37109375
▁trust 1.37890625
▁and 0.96142578125
▁loyal 0.1673583984375
ty 0.0014963150024414062
▁of 0.0160369873046875
▁Co 4.64453125
ors 0.0005383491516113281
▁Light 0.031341552734375
▁enthus 6.02734375
iast 0.00012826919555664062
s 0.0001850128173828125
▁who 4.05859375
▁have 1.4951171875
▁associated 8.7734375
▁the 0.6865234375
▁brand 0.296875
' 4.92578125
s 0.00034546852111816406
▁taste 3.033203125
▁and 0.90185546875
▁quality 0.2294921875
▁with 0.1072998046875
▁the 1.908203125
▁company 1.3310546875
. 1.990234375
<0x0A> 0.1934814453125
M 2.498046875
ol 0.05950927734375
son 0.00021886825561523438
▁Bre 0.056060791015625
wer 4.57763671875e-05
ies 0.007396697998046875
' 1.4052734375
▁management 4.4765625
▁team 0.86083984375
▁has 1.3037109375
▁remained 6.4296875
▁relatively 4.2578125
▁tight 4.15234375
- 0.052337646484375
li 0.0018987655639648438
pped 8.857250213623047e-05
▁about 0.70556640625
▁their 2.955078125
▁plans 0.44287109375
▁to 2.009765625
▁navigate 7.91015625
▁this 0.91748046875
▁new 2.64453125
▁landscape 1.6796875
. 0.360595703125
▁Anal 4.796875
yst 0.00138092041015625
s 0.0024509429931640625
, 3.3515625
▁however 0.30419921875
, 0.00078582763671875
▁emphas 6.82421875
ized 3.73046875
▁the 0.268310546875
▁need 0.41845703125
▁for 0.08416748046875
▁swift 0.351806640625
▁action 0.09332275390625
, 3.865234375
▁suggesting 3.34765625
▁that 0.10699462890625
▁the 0.7314453125
▁company 0.190185546875
' 2.712890625
s 2.849102020263672e-05
▁ability 3.7734375
▁to 0.0020542144775390625
▁pivot 4.765625
▁and 1.36328125
▁adapt 0.56640625
▁will 2.99609375
▁be 1.7744140625
▁cru 1.4384765625
cial 0.000484466552734375
▁for 1.73828125
▁its 1.3349609375
▁surv 1.3916015625
ival 0.0007863044738769531
. 0.83837890625
<0x0A> 0.96875
The 1.9970703125
▁re 5.8046875
per 0.3564453125
cuss 0.00733184814453125
ions 9.417533874511719e-05
▁of 0.0850830078125
▁this 1.0224609375
▁decision 0.8662109375
▁are 1.0986328125
▁not 2.572265625
▁limited 2.732421875
▁to 0.01403045654296875
▁Mol 0.6142578125
son 8.237361907958984e-05
▁Bre 0.00909423828125
wer 3.2782554626464844e-05
ies 0.006916046142578125
▁alone 0.6689453125
. 0.36865234375
▁Within 7.703125
▁the 0.1295166015625
▁bro 2.412109375
ader 2.86102294921875e-06
▁bre 2.611328125
wing 0.01029205322265625
▁industry 0.1287841796875
, 0.01140594482421875
▁compet 5.359375
itors 0.32666015625
▁will 2.671875
▁be 1.8125
▁dil 9.5078125
ig 0.141357421875
ently 0.0003266334533691406
▁obser 4.90234375
ving 2.765655517578125e-05
▁how 1.7392578125
▁the 1.123046875
▁market 2.810546875
▁respond 0.87939453125
s 0.00019860267639160156
▁and 3.26953125
▁how 2.853515625
▁Mol 0.86572265625
son 7.915496826171875e-05
▁Bre 0.008758544921875
wer 3.6835670471191406e-05
ies 0.004970550537109375
▁will 2.89453125
▁recover 3.890625
▁from 0.177490234375
▁this 0.244873046875
▁set 0.35400390625
back 0.0005693435668945312
. 0.060394287109375
▁The 2.095703125
▁outcome 3.244140625
▁may 3.92578125
▁re 7.19921875
define 0.744140625
▁the 0.366455078125
▁dynamics 4.51171875
▁of 0.08062744140625
▁the 0.2685546875
▁be 1.01953125
er 0.037689208984375
▁industry 0.9560546875
, 1.2724609375
▁potentially 4.09765625
▁alter 2.6875
ing 0.0010423660278320312
▁the 0.4765625
▁landscape 1.1044921875
▁for 0.86279296875
▁other 3.302734375
▁bre 1.4521484375
wing 0.88427734375
▁companies 0.4072265625
▁as 1.138671875
▁well 0.05865478515625
. 0.2255859375
<0x0A> 0.1507568359375
As 2.77734375
▁the 1.275390625
▁dust 4.26953125
▁sett 0.29345703125
les 9.906291961669922e-05
▁on 1.1865234375
▁this 0.2734375
▁news 3.47265625
, 0.062744140625
▁all 4.83984375
▁eyes 0.218017578125
▁are 0.74462890625
▁on 0.3232421875
▁Mol 0.220703125
son 0.00010085105895996094
▁Bre 0.01751708984375
wer 4.8160552978515625e-05
ies 0.0022602081298828125
, 3.38671875
▁waiting 4.02734375
▁to 0.469482421875
▁see 0.029876708984375
▁how 0.6064453125
▁the 1.2470703125
▁company 0.143798828125
▁will 1.3984375
▁address 3.3046875
▁this 0.293701171875
▁unexpected 3.291015625
▁challenge 1.486328125
. 0.62451171875
▁Will 3.6640625
▁they 1.357421875
▁emer 6.75
ge 7.712841033935547e-05
▁triumph 3.072265625
ant 0.0269317626953125
, 1.6298828125
▁fue 9.578125
led 1.3113021850585938e-05
▁by 0.0282135009765625
▁a 1.853515625
▁successful 5.83203125
▁counter 6.7421875
- 1.8291015625
move 1.5078125
, 2.580078125
▁or 0.023223876953125
▁will 0.294677734375
▁they 0.37109375
▁struggle 2.697265625
▁to 0.11529541015625
▁reg 1.857421875
ain 0.0009088516235351562
▁their 0.814453125
▁position 2.47265625
▁in 1.1865234375
▁the 0.35400390625
▁market 0.580078125
? 0.313720703125
▁Only 0.640625
▁time 0.003261566162109375
▁will 0.035858154296875
▁tell 0.009857177734375
▁how 3.736328125
▁Mol 1.0927734375
son 6.091594696044922e-05
▁Bre 0.00453948974609375
wer 3.635883331298828e-05
ies 0.0017080307006835938
▁we 7.984375
athers 0.20703125
▁this 0.1708984375
▁storm 0.7490234375
▁and 1.001953125
▁keeps 5.984375
▁its 0.79443359375
▁place 2.87890625
▁among 2.0078125
▁the 0.15869140625
▁gi 4.59765625
ants 0.0001024007797241211
▁of 0.52392578125
▁the 0.089111328125
▁bre 2.10546875
wing 0.0020618438720703125
▁industry 0.08026123046875
. 0.057647705078125
