▁In 10.375
▁the 5.62890625
▁demand 11.265625
ing 3.943359375
m 13.1015625
▁and 6.11328125
▁fast 7.48828125
- 3.833984375
p 1.39453125
ac 0.2509765625
ed 0.1680908203125
▁health 8.03125
care 2.8671875
▁setting 3.6015625
, 1.1796875
▁n 5.0
urs 0.1112060546875
es 0.72998046875
▁are 1.9765625
▁constantly 5.375
▁exposed 5.4609375
▁to 0.3017578125
▁high 3.162109375
▁l 9.3359375
ce 9.34375
vel 6.9453125
▁of 2.91015625
▁st 8.3125
res 4.2890625
. 5.77734375
▁From 7.40625
▁dealing 8.1953125
▁w 5.51171875
i 2.021484375
X 10.390625
th 6.17578125
▁r 6.17578125
cit 10.078125
ical 3.748046875
y 8.171875
▁i 5.97265625
F 6.625
ll 7.08984375
▁at 6.6171875
ients 8.1171875
▁to 2.193359375
▁man 3.87890625
aging 0.2122802734375
▁long 6.25390625
▁w 4.046875
ok 3.93359375
ring 8.1484375
▁hours 0.65576171875
, 0.81103515625
▁these 4.29296875
prof 9.3984375
ess 5.2265625
io 1.7587890625
N 4.6328125
n 3.134765625
als 3.173828125
▁are 1.5703125
▁often 3.689453125
▁at 4.046875
▁risk 2.7421875
▁of 0.7021484375
▁experien 3.619140625
cing 0.07666015625
▁burn 2.806640625
out 0.1719970703125
▁and 2.166015625
▁a 4.703125
▁decl 5.96875
ne 13.03125
▁in 0.5849609375
▁their 2.75
▁emot 5.0546875
ional 0.1104736328125
▁well 1.3154296875
- 0.36474609375
be 0.1611328125
ig 8.796875
. 0.71337890625
▁However 4.734375
, 0.046722412109375
▁there 2.396484375
▁is 1.32421875
▁a 1.69921875
▁op 9.2890625
wer 9.796875
ful 2.568359375
▁cop 6.140625
ing 0.294921875
▁me 5.62890625
cha 5.87890625
Y 8.0234375
n 2.48828125
ism 2.8671875
▁that 1.9853515625
▁can 1.00390625
▁help 1.390625
▁nu 10.328125
y 5.890625
rs 6.3984375
es 7.28515625
▁in 3.869140625
▁man 3.42578125
aging 0.1834716796875
▁their 2.138671875
▁stress 1.744140625
▁levels 2.923828125
▁and 1.2158203125
▁pre 7.27734375
ev 8.4765625
nt 5.4609375
ing 1.2431640625
▁b 7.234375
turn 9.1796875
out 3.783203125
▁– 7.8046875
▁lear 9.625
nd 3.650390625
▁optim 11.640625
ism 2.630859375
. 0.8515625
▁By 5.05859375
▁cultiv 5.421875
ating 0.048370361328125
▁a 1.6484375
▁positive 1.466796875
▁and 3.173828125
▁optim 1.20703125
istic 0.04669189453125
▁mind 2.052734375
set 0.2373046875
, 0.26904296875
▁n 0.75537109375
urs 0.038055419921875
es 0.04449462890625
▁can 0.371337890625
▁reduce 3.689453125
▁the 1.978515625
▁n 6.28515625
ris 6.3125
k 3.4921875
▁of 0.112548828125
▁u 8.84375
br 7.52734375
n 4.328125
out 5.4765625
▁and 1.2861328125
▁improve 2.90234375
▁their 0.416015625
▁emot 1.5341796875
ional 0.07611083984375
▁well 0.20751953125
- 0.1927490234375
be 0.047760009765625
ing 0.173583984375
, 3.21484375
▁ult 9.9296875
i 1.783203125
V 5.92578125
m 3.201171875
ately 4.13671875
l 7.7421875
▁e 4.953125
ading 6.24609375
▁d 7.40625
to 5.421875
▁better 3.8125
▁p 5.91796875
Mat 8.625
ient 4.97265625
▁care 1.380859375
. 0.42431640625
<0x0A> 2.2578125
L 4.13671875
ear 0.294189453125
ned 2.7421875
▁optim 0.748046875
ism 0.08050537109375
▁is 0.82666015625
▁the 1.796875
▁belief 3.16796875
▁in 1.802734375
▁one 0.9072265625
' 0.0330810546875
s 0.03668212890625
▁ab 2.857421875
X 12.140625
ility 4.7109375
H 13.125
▁to 1.900390625
▁contre 13.359375
ol 8.0625
▁the 2.53515625
▁outcome 4.47265625
▁of 0.25146484375
▁situations 4.24609375
▁ad 8.7890625
▁the 4.55859375
▁be 7.99609375
lef 11.78125
▁that 3.5859375
▁set 7.23046875
back 2.4453125
s 0.05523681640625
▁are 1.208984375
▁temporary 2.3828125
▁and 0.677734375
▁can 1.8359375
▁be 0.134033203125
▁overcome 0.5087890625
. 0.494384765625
▁This 2.724609375
▁mind 3.697265625
set 0.1456298828125
▁is 1.4306640625
▁cru 4.98828125
cial 0.050262451171875
▁for 1.12890625
▁n 0.82666015625
urs 0.0196380615234375
es 0.07373046875
▁as 2.791015625
▁they 1.2392578125
▁face 2.9296875
▁numerous 3.73046875
▁challeng 1.0888671875
es 0.0738525390625
▁and 1.984375
▁un 5.0859375
c 6.3515625
et 4.3984375
raint 7.38671875
ies 3.46484375
▁in 1.2646484375
▁their 0.53125
▁daily 1.3251953125
▁work 1.171875
. 0.5166015625
▁By 2.46484375
▁adopt 2.755859375
ing 0.00897216796875
▁th 6.8671875
ij 8.6953125
s 2.369140625
▁out 6.1015625
look 0.268798828125
, 0.27197265625
▁in 8.4453125
urs 8.5859375
es 0.09075927734375
▁are 2.44140625
▁mo 10.265625
er 4.203125
▁likely 1.314453125
▁to 0.11224365234375
▁view 5.30078125
▁set 2.62109375
back 0.0110626220703125
s 0.0173187255859375
▁o 7.7421875
▁stress 11.765625
ful 0.5791015625
▁events 1.9697265625
▁as 0.6025390625
▁temporary 1.45703125
▁obst 3.56640625
acles 0.12213134765625
▁rather 3.25
▁than 0.078369140625
▁ins 4.74609375
ur 0.053192138671875
mount 0.5029296875
able 0.028106689453125
b 9.921875
▁ar 8.8046875
riers 6.5625
. 0.57958984375
▁Instead 5.546875
▁of 0.2060546875
▁feeling 4.46484375
▁defeated 2.720703125
, 1.4189453125
▁they 1.4541015625
▁are 1.1416015625
▁encourag 3.033203125
ed 0.007488250732421875
▁to 0.102294921875
▁find 3.8203125
▁sol 5.1640625
ut 1.3974609375
p 6.21484375
ion 1.908203125
R 9.0
s 1.7646484375
, 2.666015625
▁learn 3.998046875
▁from 0.40771484375
▁experiences 4.296875
, 0.5380859375
▁and 0.2215576171875
▁approach 6.0546875
▁challeng 2.025390625
es 0.0548095703125
▁with 0.361083984375
▁res 4.4609375
ili 0.205078125
ence 0.045440673828125
. 0.5244140625
<0x0A> 1.513671875
O 5.23046875
X 4.67578125
ne 9.84375
▁way 6.66015625
▁in 2.958984375
▁which 0.59130859375
▁learned 3.427734375
▁p 7.09765625
tim 7.79296875
ism 0.2354736328125
▁serves 7.75
▁as 1.1826171875
▁a 0.362548828125
▁cop 1.4921875
ing 0.01241302490234375
▁mechanism 0.54931640625
▁for 1.6552734375
▁n 0.162109375
urs 0.01398468017578125
es 0.03204345703125
▁is 0.2230224609375
▁by 0.82373046875
▁hel 8.5546875
D 5.67578125
ping 9.5625
▁them 0.9228515625
▁r 5.8046875
frame 10.921875
▁m 5.01953125
negative 9.828125
▁situations 2.4453125
. 4.42578125
▁In 2.818359375
▁high 8.734375
s 5.2578125
- 4.76171875
tr 6.1796875
ess 0.708984375
▁moments 4.50390625
, 0.11346435546875
▁nr 9.4609375
uses 3.640625
▁may 2.87890625
▁encounter 4.9296875
▁difficult 3.546875
▁pat 7.34765625
ie 2.75
L 5.5703125
nt 5.23046875
s 1.0400390625
, 1.6611328125
▁medical 7.48046875
▁r 6.71484375
ror 6.58984375
s 0.89453125
, 0.127685546875
▁or 1.19140625
c 8.71875
▁on 6.1953125
f 4.921875
lic 1.7109375
ts 0.1787109375
▁with 2.203125
▁coll 9.453125
V 4.58984375
e 2.63671875
agues 5.66796875
. 0.521484375
▁T 5.53125
ese 7.359375
▁experiences 3.126953125
▁can 0.79833984375
▁easily 4.7578125
▁lead 2.041015625
▁to 0.36474609375
▁feelings 2.515625
▁of 0.03973388671875
▁fr 2.158203125
ustration 0.08935546875
▁, 7.59765625
gu 4.859375
il 2.953125
C 6.05078125
t 2.984375
, 0.378173828125
▁or 1.5205078125
▁an 4.796875
gr 5.83984375
. 5.2265625
▁However 1.3515625
, 0.011260986328125
▁d 6.31640625
by 3.30859375
▁utiliz 10.1875
in 1.57421875
E 6.50390625
g 4.58203125
▁earned 11.6015625
▁optim 0.55908203125
ism 0.10919189453125
, 0.3125
▁nur 4.27734375
se 0.35302734375
▁can 1.2451171875
▁ref 5.87890625
ra 4.84375
F 7.984375
me 4.44140625
▁t 3.740234375
ese 3.5
▁si 11.796875
ut 4.05859375
ations 0.85791015625
▁and 1.0380859375
▁focus 3.32421875
▁on 0.2724609375
▁the 0.896484375
▁positive 1.5751953125
▁aspects 0.90478515625
. 2.4375
▁For 2.734375
▁example 0.6005859375
, 0.01435089111328125
▁instead 2.744140625
▁of 0.048858642578125
▁dwell 3.7109375
ing 0.016693115234375
▁on 0.10882568359375
▁a 2.150390625
▁mistake 5.1328125
, 1.685546875
▁an 3.931640625
▁optim 4.44921875
istic 0.4296875
▁nur 0.58642578125
se 0.0099029541015625
▁may 2.048828125
▁view 3.880859375
▁it 0.54248046875
▁as 0.05963134765625
▁ale 12.71875
▁ar 7.23046875
nl 10.453125
W 7.33984375
ing 2.982421875
▁opportunity 3.751953125
▁to 0.5791015625
▁improve 1.4189453125
▁their 2.775390625
▁skills 2.669921875
▁and 0.9697265625
▁prevent 5.33203125
▁future 1.6669921875
▁errors 1.8291015625
. 0.0643310546875
▁This 2.849609375
▁ref 4.890625
arm 8.4375
ing 1.0107421875
▁of 0.748046875
▁negative 3.138671875
▁events 1.904296875
▁en 8.171875
hanced 4.171875
s 6.55078125
▁un 7.71484375
rs 7.7109375
es 0.32421875
' 2.0625
▁ab 3.462890625
li 6.14453125
y 2.111328125
▁o 6.0
▁manage 5.2421875
▁stress 1.31640625
, 2.08203125
▁main 11.96875
ain 6.46484375
▁a 1.578125
▁positive 0.4091796875
▁attitude 1.2412109375
, 0.08807373046875
nad 14.6953125
▁continue 6.12109375
▁providing 3.158203125
▁quality 2.359375
▁care 0.591796875
▁to 1.2099609375
▁their 1.5986328125
▁patients 0.11468505859375
. 0.100341796875
<0x0A> 0.1883544921875
More 6.3203125
o 4.48046875
L 4.3203125
ver 5.8984375
, 0.369873046875
▁lear 3.9453125
X 4.24609375
ned 3.689453125
▁optim 0.22021484375
is 4.52734375
J 5.08984375
m 1.4052734375
▁a 6.08984375
ids 4.13671875
▁n 0.91162109375
urs 0.01434326171875
es 0.0166778564453125
▁in 0.31689453125
▁maintain 4.45703125
ign 8.0703125
▁a 0.84326171875
▁sense 3.908203125
▁of 0.04541015625
▁contr 10.9453125
V 6.01953125
l 3.28125
▁over 5.93359375
▁their 1.6455078125
▁work 1.5849609375
▁env 11.796875
ix 6.640625
r 4.0234375
X 5.25
on 4.65625
ment 5.56640625
. 0.49560546875
▁In 2.240234375
▁the 2.947265625
▁he 6.5546875
al 1.380859375
h 2.02734375
care 1.8759765625
▁setting 0.287353515625
, 0.042724609375
▁nur 2.802734375
se 0.07037353515625
▁often 4.08203125
▁ave 11.578125
▁little 8.015625
▁control 0.57470703125
▁over 0.17431640625
▁external 6.0703125
▁factors 0.9853515625
▁such 1.2822265625
▁as 0.046875
▁pat 7.375
ien 2.455078125
▁tout 15.3359375
comes 8.375
▁or 2.83984375
▁staff 4.2734375
ing 1.185546875
▁short 3.171875
ages 0.292236328125
. 0.10736083984375
▁How 7.7265625
e 1.5341796875
C 6.32421875
ver 5.3203125
, 0.0736083984375
▁by 2.69140625
▁cultiv 0.72900390625
ating 0.0523681640625
▁learned 2.634765625
▁opt 6.0859375
i 1.4443359375
ism 4.4921875
, 0.160888671875
▁V 10.9296875
n 1.8857421875
rs 2.16796875
es 0.048004150390625
▁can 0.66796875
▁X 7.28515625
shift 11.0390625
▁their 1.03515625
▁attention 2.359375
▁to 1.6806640625
▁aspects 6.390625
▁they 4.10546875
▁can 0.57275390625
▁control 0.775390625
, 1.0791015625
▁suc 8.15625
▁as 5.3125
▁their 1.7685546875
▁communication 5.67578125
▁skills 0.61181640625
, 0.73486328125
▁time 4.68359375
▁management 0.1968994140625
, 0.53369140625
▁and 0.4013671875
▁self 3.712890625
- 0.10870361328125
care 1.2568359375
. 0.35107421875
▁This 2.177734375
▁internal 6.37890625
▁focus 2.623046875
▁on 2.041015625
▁contr 8.2265625
ll 5.87109375
able 6.98828125
▁factors 1.3125
▁hel 7.7109375
z 7.95703125
ps 7.3125
▁n 1.41796875
urs 0.015716552734375
es 0.00780487060546875
▁avoid 4.2734375
▁feeling 2.7578125
▁hel 1.13671875
pl 0.468505859375
ess 0.031585693359375
▁or 2.201171875
▁o 6.1953125
ve 5.6484375
wr 5.72265625
hel 4.07421875
med 2.02734375
▁by 1.0869140625
▁the 1.8388671875
▁external 4.9453125
▁stress 4.33984375
ors 0.357421875
. 0.98095703125
▁Con 5.0625
sequently 0.97265625
, 0.00992584228515625
▁they 1.30078125
▁e 6.16015625
el 6.984375
▁emp 4.828125
ower 0.08544921875
ed 0.059814453125
▁and 1.529296875
▁ca 9.3046875
▁nada 14.4921875
pt 7.6953125
▁more 5.83984375
▁effect 7.1796875
v 2.556640625
ely 1.1103515625
, 3.17578125
S 9.8828125
▁reducing 7.70703125
X 9.28125
t 5.109375
▁he 4.73828125
▁risk 1.11328125
▁of 0.1060791015625
▁burn 0.79296875
out 0.041229248046875
. 1.4755859375
<0x0A> 0.18896484375
Import 8.921875
antly 0.64453125
, 0.022491455078125
▁te 9.3671875
h 2.6015625
▁ap 8.1796875
lication 3.6640625
▁of 0.26220703125
▁learned 1.2275390625
▁optim 0.1865234375
im 4.8984375
▁significantly 11.0859375
▁impr 9.453125
F 7.265625
ov 5.8359375
es 0.491455078125
▁emot 6.02734375
ional 0.1304931640625
▁well 0.400390625
- 0.09832763671875
be 0.023223876953125
ing 0.037994384765625
▁in 2.52734375
▁n 0.7001953125
urs 0.0341796875
es 0.25732421875
. 0.439208984375
▁By 1.2587890625
▁foc 4.1953125
using 0.102294921875
▁on 0.266845703125
▁positive 2.28515625
▁thoughts 3.7265625
▁and 0.59716796875
▁maintain 5.47265625
ing 0.0426025390625
▁a 0.376953125
▁sense 2.044921875
▁of 0.03125
▁optim 3.2890625
ism 0.048492431640625
, 0.1710205078125
▁nu 5.54296875
O 8.328125
rs 1.1865234375
es 0.07525634765625
▁can 1.2060546875
▁counter 7.96484375
bal 2.74609375
ac 8.0625
ne 5.58984375
▁the 1.4921875
▁emot 3.810546875
ional 0.1114501953125
▁to 2.76953125
ll 0.5888671875
▁th 5.33984375
mat 11.2734375
▁thre 7.859375
▁work 11.1328125
▁may 5.01953125
▁bring 3.517578125
. 0.353515625
▁Studies 5.10546875
▁have 0.411865234375
▁shown 0.6171875
▁that 0.12493896484375
▁opt 5.984375
m 3.4140625
istic 3.296875
▁ind 9.0859375
vi 5.9765625
uals 7.640625
▁have 1.8359375
▁lower 2.9609375
▁levels 1.48828125
▁of 0.041107177734375
▁psych 4.3515625
ological 0.169189453125
▁dist 0.250732421875
ress 0.03448486328125
, 1.16015625
▁reduced 4.75
▁sympt 4.14453125
oms 0.037750244140625
▁of 0.08758544921875
▁anx 1.8427734375
iety 0.0216217041015625
▁and 0.390380859375
▁de 0.10260009765625
pression 0.0858154296875
, 0.0382080078125
▁and 0.335205078125
▁a 2.345703125
▁re 7.01953125
ater 9.4921875
▁overall 6.30859375
▁sense 0.493408203125
▁of 0.03717041015625
▁well 0.1826171875
V 9.46875
- 7.1015625
be 0.1336669921875
ing 0.0821533203125
. 0.52294921875
Th 6.3046875
ix 6.72265625
s 6.06640625
▁means 3.626953125
▁that 0.339111328125
▁by 2.244140625
▁deliber 10.078125
ately 0.247314453125
▁adopt 3.33984375
ing 0.0256500244140625
a 6.46484375
▁ 7.265625
▁positive 9.46875
▁nad 11.6875
▁hope 5.82421875
ful 0.07586669921875
▁out 1.173828125
look 0.007740020751953125
, 0.26953125
▁urs 10.3046875
es 0.06915283203125
▁can 0.578125
▁better 3.890625
▁co 1.8359375
pe 0.006832122802734375
▁with 0.1832275390625
▁the 1.1904296875
▁daily 3.248046875
▁stress 1.5595703125
J 10.8046875
es 4.890625
▁of 1.0966796875
▁their 2.140625
▁profession 2.583984375
▁and 1.353515625
▁enh 4.55078125
ance 0.1793212890625
▁the 2.244140625
i 4.7578125
▁rem 8.984375
ot 1.82421875
ional 6.734375
▁res 4.87109375
ili 0.330078125
ence 0.01453399658203125
. 0.255859375
<0x0A> 0.373779296875
Add 6.05078125
itionally 0.33251953125
, 0.01190185546875
▁lar 9.84375
ned 3.19140625
▁optim 0.236572265625
ism 0.1500244140625
▁can 1.5341796875
▁fost 6.15234375
er 0.045257568359375
▁a 1.5478515625
▁supp 10.53125
ot 4.8203125
rive 14.5546875
▁and 3.150390625
▁col 10.140625
al 7.4375
b 5.8828125
ort 7.21875
ive 0.54248046875
▁work 1.916015625
▁culture 4.1875
▁within 3.279296875
▁health 2.98046875
care 0.1707763671875
N 9.953125
▁settings 4.25390625
. 0.193115234375
▁When 3.494140625
▁n 0.82470703125
urs 0.0224151611328125
se 8.359375
▁are 2.130859375
▁I 10.421875
optim 8.5234375
istic 1.10546875
, 0.734375
▁they 0.353271484375
▁are 0.9853515625
▁more 0.75
▁likely 0.38671875
▁ot 8.1328125
▁eng 4.63671875
a 5.3125
J 1.7138671875
ge 5.94140625
▁in 0.841796875
▁positive 3.671875
▁communic 6.078125
atin 4.38671875
, 1.7646484375
▁team 4.73828125
work 0.364501953125
i 9.078125
, 1.076171875
▁and 0.53857421875
▁con 7.0859375
lict 6.15234375
▁resolution 0.63037109375
. 0.48779296875
▁Opt 4.796875
im 0.2376708984375
istic 0.69189453125
▁n 0.541015625
uses 9.65625
▁are 0.9345703125
▁better 4.734375
▁eq 8.5078125
V 2.609375
ui 7.23046875
pped 4.17578125
▁to 0.1806640625
▁hand 8.875
l 0.66552734375
Te 8.9453125
▁conflicts 5.15234375
▁with 1.876953125
▁coll 3.603515625
re 7.76171875
agues 0.751953125
, 1.1591796875
▁as 4.234375
▁they 0.93017578125
▁ar 6.6015625
be 7.75
▁more 2.404296875
▁likely 2.65625
▁to 0.133544921875
▁focus 4.984375
o 9.359375
▁n 5.76953125
▁a 4.53125
▁solution 1.9912109375
- 3.203125
orient 0.634765625
ed 0.094970703125
▁approach 0.438720703125
r 6.46875
▁a 7.32421875
ther 7.39453125
▁than 0.347412109375
▁dwell 6.40234375
ing 0.2113037109375
▁on 0.16650390625
▁negative 3.173828125
▁emot 6.0078125
ions 0.058746337890625
. 0.51318359375
▁B 7.265625
U 5.21875
y 3.873046875
▁prom 5.73046875
oting 0.126708984375
▁a 1.4169921875
▁positive 1.2138671875
▁or 7.79296875
l 6.96875
k 6.64453125
▁environment 3.99609375
, 0.8740234375
▁lean 9.125
red 5.08203125
d 10.5859375
▁optim 0.3134765625
ism 0.1365966796875
▁cont 3.93359375
ributes 0.3779296875
▁to 0.2198486328125
▁enh 5.40625
ac 6.05078125
de 7.99609375
▁collaboration 6.203125
, 1.494140625
▁dec 7.8515625
era 9.4140625
ased 14.8515625
▁work 3.71484375
place 1.9765625
▁ten 11.6796875
P 6.96875
s 2.736328125
ion 4.65234375
, 0.6904296875
▁ad 8.0625
n 3.40234375
▁ult 8.28125
mi 6.7578125
T 5.82421875
ately 9.1640625
▁h 6.28125
l 4.62109375
igh 6.703125
er 1.265625
▁jo 8.96875
ob 8.8828125
▁satisfaction 5.15625
▁among 2.072265625
▁n 0.34619140625
urs 0.1348876953125
es 0.1072998046875
. 0.1783447265625
▁This 3.68359375
, 2.884765625
▁in 0.132080078125
▁turn 0.1085205078125
, 0.019317626953125
▁leads 2.900390625
▁to 0.15771484375
▁bet 7.8515625
te 3.166015625
▁r 2.525390625
pat 4.765625
iet 10.328125
n 1.9658203125
▁care 5.22265625
a 7.46484375
▁s 6.6328125
▁n 5.50390625
urs 0.0946044921875
es 0.07147216796875
▁are 1.35546875
▁able 1.279296875
▁to 0.12078857421875
▁work 5.40234375
▁og 12.3515625
ether 7.21484375
▁m 7.421875
re 6.20703125
▁effectively 1.1943359375
▁an 6.29296875
▁e 5.84765625
fic 7.45703125
ient 0.377685546875
ly 0.199951171875
. 1.189453125
<0x0A> 0.25732421875
In 2.390625
▁conclusion 2.1953125
, 0.013458251953125
▁learned 2.33984375
▁optim 0.1314697265625
ism 0.09613037109375
▁is 0.7314453125
▁a 0.61181640625
▁powerful 2.359375
▁co 6.09375
ip 5.3203125
ng 5.2734375
▁mechanism 2.076171875
▁that 1.0166015625
▁helps 3.1953125
▁n 0.6376953125
urs 0.0377197265625
es 0.0221099853515625
▁manage 2.302734375
▁st 7.3359375
ess 5.375
▁levels 5.3671875
, 1.6982421875
▁reduce 1.9423828125
▁the 1.5478515625
▁r 6.51171875
b 8.6640625
sk 8.015625
▁of 2.357421875
▁burn 0.1524658203125
out 0.02581787109375
, 0.142822265625
▁and 0.192138671875
▁improve 0.9384765625
A 10.296875
▁emot 3.8984375
io 4.578125
al 1.4072265625
▁well 0.263671875
- 0.1314697265625
be 0.04046630859375
ing 0.022796630859375
▁in 3.181640625
▁the 1.0576171875
▁health 2.205078125
care 0.08599853515625
▁se 8.25
I 4.453125
tt 7.17578125
ing 2.083984375
. 0.2254638671875
▁By 0.8232421875
▁r 7.98046875
er 5.515625
aming 6.375
▁negative 0.82958984375
▁situ 6.484375
Y 8.078125
ations 4.80078125
, 1.998046875
▁maintain 8.3046875
ing 0.0804443359375
▁a 0.445068359375
▁sense 1.6318359375
▁of 0.034271240234375
▁contr 2.517578125
lo 5.12109375
, 1.7705078125
▁and 0.450439453125
▁fost 2.93359375
ering 0.06396484375
▁a 0.55908203125
▁posit 2.833984375
g 9.2578125
ive 1.966796875
▁work 2.865234375
▁en 4.28125
vir 1.2119140625
om 2.3671875
n 1.5849609375
ent 0.29248046875
, 0.066650390625
▁n 0.52783203125
urs 0.0307464599609375
es 0.0188751220703125
▁can 0.81982421875
▁b 4.6015625
ne 6.59375
ef 4.23046875
it 3.11328125
▁f 5.40234375
H 7.1171875
ro 6.47265625
▁the 2.552734375
▁effects 5.875
▁of 0.4267578125
▁learned 1.49609375
▁opt 4.8359375
i 1.140625
ism 1.28125
m 8.6484375
. 0.91357421875
▁Ult 3.19140625
imately 0.81396484375
, 0.036834716796875
▁this 1.96875
▁positive 3.6171875
▁mind 2.359375
se 7.58203125
▁t 4.8515625
cont 8.6640625
ributes 0.281982421875
▁to 0.1519775390625
▁their 4.69140625
▁ab 5.06640625
i 3.49609375
ilty 3.8984375
▁o 4.3125
▁provide 2.55859375
▁quality 1.9892578125
pat 7.06640625
ient 0.1043701171875
▁care 0.144287109375
x 9.125
▁and 1.970703125
▁enh 2.71484375
ances 2.142578125
▁their 1.0009765625
▁b 6.08203125
L 5.41015625
vo 7.7421875
er 3.439453125
all 8.4296875
▁j 7.3203125
bo 7.10546875
▁satisfaction 11.3203125
▁and 3.146484375
▁well 2.212890625
- 0.1756591796875
be 0.056121826171875
ign 5.45703125
▁as 4.5859375
Th 14.0703125
▁e 5.65234375
alth 7.08203125
care 0.290283203125
▁pr 10.375
f 3.884765625
ession 0.12744140625
als 0.044158935546875
. 0.041473388671875
