▁Captain 9.3125
▁Marcus 8.765625
▁Sam 8.734375
u 1.03125
els 0.104248046875
▁gaz 9.7734375
ed 0.018463134765625
▁out 1.3955078125
▁of 1.796875
▁the 0.192626953125
▁star 4.55859375
ship 3.0234375
' 0.60888671875
s 0.00037097930908203125
▁view 1.5869140625
ports 2.216796875
, 1.55859375
▁his 2.3125
▁heart 4.53125
▁s 2.923828125
inking 0.057830810546875
. 1.0634765625
▁The 2.1640625
▁al 4.9375
ien 0.1224365234375
▁ships 3.513671875
, 3.607421875
▁sle 5.1875
ek 0.00024819374084472656
▁and 0.371337890625
▁dead 2.634765625
ly 0.0013265609741210938
, 0.283935546875
▁sw 4.3125
ar 0.1361083984375
med 6.794929504394531e-05
▁around 1.2333984375
▁his 2.4609375
▁vessel 0.8271484375
▁like 1.0712890625
▁v 3.2265625
ult 0.193603515625
ures 4.8279762268066406e-05
▁desc 4.859375
ending 0.001117706298828125
▁upon 1.232421875
▁their 2.43359375
▁pre 0.24365234375
y 8.928775787353516e-05
. 0.07183837890625
▁He 2.552734375
▁watched 3.34765625
▁as 1.3701171875
▁their 3.35546875
▁las 3.259765625
ers 0.7353515625
▁pier 5.421875
ced 0.00038313865661621094
▁through 3.123046875
▁the 0.281005859375
▁almost 9.6171875
- 2.138671875
de 5.140625
ad 0.501953125
▁shield 3.73046875
s 0.1395263671875
, 1.49609375
▁ign 4.21875
iting 0.09478759765625
▁spark 5.63671875
s 0.05816650390625
▁and 1.6376953125
▁smoke 3.583984375
▁within 4.64453125
▁the 0.148681640625
▁control 5.60546875
▁room 0.9052734375
. 0.2203369140625
▁The 2.255859375
▁end 7.9921875
▁was 0.6005859375
▁near 0.75146484375
, 1.7919921875
▁and 0.54736328125
▁the 2.513671875
▁ble 9.3828125
ak 0.289794921875
▁reality 2.4375
▁was 2.416015625
▁sett 4.546875
ling 0.0006661415100097656
▁upon 2.79296875
▁him 0.30712890625
. 0.77587890625
<0x0A> 0.71728515625
M 3.529296875
arc 0.03887939453125
us 0.005207061767578125
▁had 1.90625
▁always 2.966796875
▁been 1.287109375
▁known 5.42578125
▁for 1.09375
▁his 0.1319580078125
▁resource 5.98046875
ful 0.0006985664367675781
ness 0.0384521484375
, 0.9677734375
▁his 1.5009765625
▁ability 1.4697265625
▁to 0.00757598876953125
▁find 2.83203125
▁solutions 1.71875
▁when 2.70703125
▁there 2.330078125
▁seemed 0.84375
▁to 0.287353515625
▁be 0.0021648406982421875
▁none 0.35546875
. 0.238037109375
▁He 1.8330078125
▁was 1.681640625
▁a 1.3447265625
▁captain 2.876953125
▁who 1.705078125
▁never 3.03125
▁surrender 3.2890625
ed 0.0006680488586425781
, 0.84326171875
▁who 1.7373046875
▁always 1.333984375
▁pushed 4.4453125
▁forward 1.39453125
, 1.1591796875
▁even 2.138671875
▁in 1.6708984375
▁the 0.11273193359375
▁face 0.47900390625
▁of 0.001220703125
▁certain 2.45703125
▁defeat 1.212890625
. 0.036468505859375
▁And 3.291015625
▁now 1.4765625
, 0.43505859375
▁as 1.740234375
▁his 2.099609375
▁crew 3.046875
▁sc 2.79296875
ram 0.280517578125
bled 0.000469207763671875
▁to 0.4296875
▁manage 7.56640625
▁the 0.24462890625
▁failing 4.65234375
▁systems 1.564453125
, 0.513671875
▁he 0.9091796875
▁knew 1.37109375
▁that 0.90380859375
▁this 2.49609375
▁would 2.216796875
▁be 0.0904541015625
▁the 0.95703125
▁ult 4.33203125
imate 0.00040221214294433594
▁test 0.07159423828125
▁of 0.49169921875
▁his 0.178955078125
▁resolve 3.275390625
. 0.1728515625
<0x0A> 0.279541015625
As 2.044921875
▁the 0.5166015625
▁last 4.05078125
▁of 0.41064453125
▁the 0.272216796875
▁shield 1.48828125
s 0.048309326171875
▁f 3.328125
lick 0.263427734375
ered 0.00772857666015625
▁and 0.45458984375
▁died 0.7587890625
, 0.042144775390625
▁Marcus 0.63427734375
▁took 2.462890625
▁a 0.0880126953125
▁deep 0.09014892578125
▁breath 0.00571441650390625
, 2.083984375
▁sum 4.50390625
mon 0.0017213821411132812
ing 0.114501953125
▁his 1.2490234375
▁inner 1.9619140625
▁strength 0.11248779296875
. 0.111328125
▁He 0.364013671875
▁had 2.19921875
▁one 3.494140625
▁last 0.9775390625
▁trick 2.5390625
▁up 0.13916015625
▁his 7.343292236328125e-05
▁sle 0.0001437664031982422
e 2.6226043701171875e-05
ve 6.651878356933594e-05
, 0.2459716796875
▁a 1.2177734375
▁des 0.96533203125
perate 0.008819580078125
▁move 2.294921875
▁that 0.15625
▁might 1.25390625
▁just 0.220458984375
▁buy 1.490234375
▁them 1.0302734375
▁a 1.7724609375
▁chance 3.279296875
▁at 1.05078125
▁surv 0.421630859375
ival 0.007053375244140625
. 0.01389312744140625
▁He 0.93994140625
▁opened 4.81640625
▁the 1.6650390625
▁inter 2.48046875
com 0.040740966796875
, 1.380859375
▁address 2.837890625
ing 2.5391578674316406e-05
▁his 0.29052734375
▁crew 0.1802978515625
▁in 2.857421875
▁a 0.216552734375
▁calm 0.60595703125
▁yet 3.107421875
▁resol 3.18359375
ute 0.0001882314682006836
▁voice 0.333251953125
. 0.1015625
<0x0A> 0.137451171875
" 0.013397216796875
Att 3.1640625
ention 0.00554656982421875
, 0.43603515625
▁all 0.66552734375
▁crew 2.083984375
▁members 0.3173828125
. 0.64404296875
▁Bra 5.1796875
ce 0.00026607513427734375
▁your 0.70751953125
selves 0.0004677772521972656
. 1.4931640625
▁We 0.55712890625
' 1.4326171875
re 0.08245849609375
▁about 0.395263671875
▁to 0.00036835670471191406
▁attempt 4.41015625
▁something 3.62890625
▁bold 3.533203125
, 1.3544921875
▁something 0.422607421875
▁that 0.60888671875
▁will 2.94921875
▁require 1.7470703125
▁every 1.3251953125
▁ 0.45849609375
ounce 1.4901161193847656e-05
▁of 7.319450378417969e-05
▁skill 3.146484375
▁and 0.059967041015625
▁courage 0.72802734375
▁we 0.73779296875
▁possess 1.0048828125
. 0.2081298828125
▁P 3.9609375
rep 0.012054443359375
are 0.00112152099609375
▁for 1.0498046875
▁an 2.94921875
▁emer 0.658203125
gency 0.002719879150390625
▁jump 0.83544921875
▁to 1.029296875
▁the 3.013671875
▁nearest 1.1337890625
▁star 1.4169921875
▁cluster 6.5390625
." 0.70556640625
<0x0A> 0.056854248046875
Conf 9.1875
usion 0.209716796875
▁and 0.5703125
▁fear 1.84765625
▁r 2.41015625
ipp 0.03424072265625
led 0.00017511844635009766
▁through 0.1568603515625
▁the 0.048614501953125
▁ship 2.529296875
, 0.875
▁but 0.260498046875
▁Marcus 0.155029296875
▁knew 1.7451171875
▁that 0.39892578125
▁hes 6.97265625
itation 0.042572021484375
▁would 0.7177734375
▁be 1.111328125
▁their 1.478515625
▁down 1.3798828125
fall 3.2186508178710938e-06
. 0.00218963623046875
▁He 0.496337890625
▁saw 5.484375
▁the 0.958984375
▁determ 3.404296875
ination 1.3589859008789062e-05
▁in 0.1558837890625
▁his 1.1650390625
▁crew 0.07330322265625
' 0.08856201171875
s 1.2874603271484375e-05
▁eyes 0.01605224609375
, 0.246826171875
▁their 2.078125
▁trust 4.03125
▁in 0.07183837890625
▁his 1.037109375
▁leadership 0.219970703125
. 0.60791015625
▁Time 7.5
▁was 0.318603515625
▁of 2.7421875
▁the 0.00279998779296875
▁ess 0.0007510185241699219
ence 7.450580596923828e-05
, 0.148681640625
▁and 0.15625
▁they 0.962890625
▁had 1.119140625
▁to 0.450439453125
▁act 0.212890625
▁swift 2.822265625
ly 0.00023162364959716797
. 1.1025390625
<0x0A> 0.222412109375
" 2.001953125
N 6.53515625
avigator 0.75927734375
, 0.09368896484375
▁plot 1.1728515625
▁a 1.5859375
▁course 0.036651611328125
▁to 0.88671875
▁the 0.2158203125
▁closest 2.751953125
▁star 0.1962890625
▁cluster 0.1898193359375
, 1.4306640625
▁but 2.630859375
▁by 7.98046875
pass 0.0985107421875
▁any 2.00390625
▁inhab 2.49609375
ited 0.0633544921875
▁plan 0.37060546875
ets 0.00010251998901367188
▁or 2.77734375
▁colon 3.373046875
ies 0.004180908203125
. 0.397216796875
▁We 0.62939453125
▁don 1.40234375
' 0.0009541511535644531
t 2.0742416381835938e-05
▁want 0.15234375
▁to 0.296142578125
▁risk 2.783203125
▁drag 8.890625
ging 0.0035114288330078125
▁them 4.02734375
▁into 0.01438140869140625
▁this 0.2064208984375
▁fight 2.716796875
," 3.421875
▁Marcus 0.482421875
▁ordered 0.9521484375
, 1.68359375
▁hoping 5.59375
▁that 0.578125
▁the 1.40234375
▁element 8.4765625
▁of 0.00018930435180664062
▁surprise 0.0029468536376953125
▁would 0.1898193359375
▁be 1.783203125
▁on 1.7548828125
▁their 0.050384521484375
▁side 8.606910705566406e-05
. 0.00958251953125
<0x0A> 0.09283447265625
H 2.97265625
is 0.019287109375
▁first 3.80859375
▁officer 0.1773681640625
, 0.67724609375
▁Lieutenant 1.9462890625
▁Al 5.2421875
vare 3.77734375
z 0.002902984619140625
, 0.004932403564453125
▁approached 5.72265625
▁him 0.405517578125
. 3.623046875
▁" 0.282470703125
Capt 1.328125
ain 2.9325485229492188e-05
, 0.0167694091796875
▁are 2.708984375
▁you 0.04150390625
▁sure 0.07177734375
▁about 0.51708984375
▁this 0.00322723388671875
? 0.123291015625
▁We 0.9814453125
▁don 2.3515625
' 0.0009484291076660156
t 7.3909759521484375e-06
▁even 2.1953125
▁know 0.08892822265625
▁if 0.57373046875
▁our 2.76953125
▁jump 2.025390625
▁drives 1.28125
▁can 3.1171875
▁handle 0.61181640625
▁such 0.9423828125
▁stress 11.828125
." 0.489501953125
<0x0A> 0.01561737060546875
M 0.2060546875
arc 2.3484230041503906e-05
us 1.2040138244628906e-05
▁turned 2.892578125
▁to 0.1776123046875
▁Al 2.17578125
vare 0.00026345252990722656
z 1.609325408935547e-05
, 0.366943359375
▁his 0.46630859375
▁eyes 0.796875
▁reflect 5.06640625
ing 0.00992584228515625
▁un 7.609375
wa 0.6845703125
ver 2.384185791015625e-07
ing 4.017353057861328e-05
▁resolve 1.0361328125
. 0.006244659423828125
▁" 0.034271240234375
We 0.5693359375
▁have 0.7607421875
▁no 0.291748046875
▁other 0.438720703125
▁option 1.8525390625
, 1.0986328125
▁Lieutenant 0.155517578125
. 0.020904541015625
▁We 1.185546875
▁either 2.51171875
▁try 4.55078125
▁this 0.859375
▁des 4.03125
perate 0.00952911376953125
▁move 1.1376953125
▁or 0.6025390625
▁face 1.861328125
▁certain 0.168212890625
▁anni 1.2890625
h 4.0531158447265625e-05
ilation 4.506111145019531e-05
. 0.355712890625
▁We 2.814453125
' 1.578125
ve 1.21875
▁surv 5.21484375
ived 3.421306610107422e-05
▁worse 1.865234375
▁odd 0.74560546875
s 1.9073486328125e-05
▁before 0.91064453125
; 5.05859375
▁I 2.275390625
▁have 1.05078125
▁faith 0.81298828125
▁in 0.177490234375
▁this 2.314453125
▁crew 0.02777099609375
▁and 2.298828125
▁in 1.23046875
▁our 0.47998046875
▁ship 2.435546875
." 1.072265625
<0x0A> 0.0276031494140625
Time 7.48828125
▁seemed 0.560546875
▁to 0.0016994476318359375
▁slow 0.548828125
▁as 0.67236328125
▁Marcus 1.34375
' 2.970703125
s 0.487060546875
▁crew 0.44091796875
▁rac 3.662109375
ed 1.1920928955078125e-07
▁against 2.322265625
▁time 3.1171875
, 1.0205078125
▁their 2.396484375
▁hands 2.630859375
▁moving 2.9296875
▁with 1.1865234375
▁precision 1.2705078125
. 3.060546875
▁Every 4.71875
▁second 1.6953125
▁that 4.3125
▁tick 2.32421875
ed 3.5762786865234375e-05
▁by 0.278076171875
▁brought 1.564453125
▁the 3.4609375
▁al 1.0830078125
ien 0.196044921875
▁ships 0.481201171875
▁closer 0.0516357421875
, 0.1153564453125
▁their 0.56884765625
▁dead 2.748046875
ly 0.0009860992431640625
▁pul 8.875
se 0.060882568359375
▁can 2.12109375
n 0.01450347900390625
ons 0.00013935565948486328
▁charg 6.359375
ing 2.1457672119140625e-06
▁for 2.986328125
▁a 1.08984375
▁final 0.345947265625
, 1.85546875
▁dev 1.5390625
ast 5.364418029785156e-05
ating 0.0003807544708251953
▁blow 0.7001953125
. 0.003925323486328125
<0x0A> 0.7255859375
" 2.154296875
Eng 3.17578125
ines 0.392333984375
▁at 1.95703125
▁full 0.673828125
▁power 0.497802734375
, 0.6640625
▁hel 5.6953125
m 0.14111328125
, 2.701171875
▁await 8.59375
▁my 0.89306640625
▁command 0.90673828125
," 0.352783203125
▁Marcus 0.0294952392578125
▁commanded 2.1640625
, 0.392822265625
▁his 0.611328125
▁voice 0.52490234375
▁echo 3.322265625
ing 0.000774383544921875
▁with 4.19140625
▁determ 1.814453125
ination 4.649162292480469e-06
. 0.102783203125
▁" 3.27734375
We 1.7158203125
▁have 1.78515625
▁to 0.70068359375
▁maxim 7.5859375
ize 0.004589080810546875
▁our 0.2347412109375
▁ch 2.126953125
ances 0.00010669231414794922
▁of 0.27294921875
▁surv 0.66064453125
ival 0.10760498046875
▁on 8.03125
▁this 0.35498046875
▁jump 1.8623046875
." 1.4638671875
<0x0A> 0.012542724609375
As 2.412109375
▁the 0.2734375
▁al 1.5859375
ien 0.08111572265625
▁ships 0.2283935546875
▁moved 4.0078125
▁in 0.434814453125
▁for 0.2442626953125
▁the 0.0416259765625
▁kill 0.0853271484375
, 0.003345489501953125
▁Marcus 0.1646728515625
▁felt 2.00390625
▁the 1.8818359375
▁ad 3.935546875
ren 6.330013275146484e-05
al 0.00518035888671875
ine 3.1113624572753906e-05
▁sur 1.9375
ging 1.24609375
▁through 0.01235198974609375
▁his 0.0811767578125
▁ve 0.11474609375
ins 5.9604644775390625e-06
. 0.207763671875
▁This 2.029296875
▁would 3.060546875
▁be 0.0670166015625
▁their 1.443359375
▁make 7.203125
- 0.10504150390625
or 0.06597900390625
- 0.0003879070281982422
break 0.0004324913024902344
▁moment 0.01076507568359375
; 3.005859375
▁there 3.234375
▁was 0.763671875
▁no 0.04119873046875
▁room 1.8212890625
▁for 0.0007624626159667969
▁error 0.5927734375
. 0.1551513671875
<0x0A> 1.0732421875
" 0.75537109375
Eng 2.60546875
age 1.63671875
▁jump 1.6533203125
▁drives 1.5498046875
... 5.4453125
▁Now 3.193359375
!" 0.07794189453125
▁Marcus 0.732421875
▁b 2.2578125
ark 0.0440673828125
ed 4.410743713378906e-06
▁the 3.138671875
▁order 0.289306640625
, 0.1314697265625
▁g 5.09375
ri 0.420166015625
pping 0.004055023193359375
▁the 0.02716064453125
▁arm 2.443359375
rest 0.345947265625
s 0.383544921875
▁of 0.3896484375
▁his 0.042510986328125
▁command 1.0771484375
▁chair 0.050048828125
▁tight 2.1484375
ly 0.01284027099609375
. 0.147216796875
<0x0A> 0.392578125
The 0.91455078125
▁star 1.8486328125
ship 0.01090240478515625
▁j 4.29296875
ol 0.175048828125
ted 5.733966827392578e-05
▁as 0.794921875
▁it 1.6337890625
▁transition 4.5234375
ed 5.7816505432128906e-05
▁into 0.95751953125
▁the 2.724609375
▁real 3.185546875
ms 5.72265625
▁of 0.03955078125
▁hyp 0.349609375
ers 0.00022530555725097656
pace 0.0003840923309326172
, 0.337890625
▁the 1.4765625
▁familiar 4.1484375
▁blue 3.890625
▁lights 3.912109375
▁eng 6.31640625
ulf 0.0242767333984375
ing 0.0033435821533203125
▁the 0.470458984375
▁vessel 1.9765625
▁before 6.32421875
▁f 1.5419921875
ading 0.04083251953125
▁into 1.2275390625
▁darkness 1.40234375
. 0.03704833984375
▁Marcus 1.2705078125
' 2.189453125
s 0.00209808349609375
▁heart 0.9150390625
be 4.703125
at 0.0007886886596679688
▁p 4.30859375
ounded 0.0260772705078125
▁in 0.24951171875
▁his 0.002288818359375
▁ears 0.44287109375
, 0.448974609375
▁and 2.04296875
▁he 0.3837890625
▁d 4.8046875
ared 0.02337646484375
▁to 1.203125
▁glance 4.11328125
▁at 0.953125
▁the 0.148681640625
▁tact 4.5234375
ical 0.00029587745666503906
▁display 0.9423828125
. 0.66015625
▁To 3.6640625
▁his 0.013946533203125
▁aston 3.169921875
ishment 0.003910064697265625
, 0.0118865966796875
▁the 0.60546875
▁al 0.24755859375
ien 0.0179443359375
▁ships 0.251708984375
▁were 0.6513671875
▁left 5.58203125
▁in 1.29296875
▁their 0.327880859375
▁w 0.0628662109375
ake 0.0004203319549560547
, 0.139892578125
▁dis 5.0234375
orient 0.461669921875
ed 0.053192138671875
▁and 0.2301025390625
▁moment 5.0
arily 9.965896606445312e-05
▁st 0.91015625
unn 0.04388427734375
ed -0.0
. 0.68408203125
<0x0A> 0.327392578125
" 0.67822265625
Sh 4.03125
ield 0.0230865478515625
s 0.016845703125
▁up 2.353515625
! 1.6005859375
▁Di 6.62109375
vert 0.0038623809814453125
▁all 0.8505859375
▁power 0.0921630859375
▁to 0.048309326171875
▁the 0.6240234375
▁weapons 3.66015625
▁systems 1.0244140625
, 1.962890625
▁and 2.515625
▁prepare 1.2890625
▁for 0.869140625
▁a 1.26953125
▁counter 0.45458984375
att 0.40771484375
ack 6.9141387939453125e-06
," 0.76953125
▁Marcus 0.091552734375
▁shout 2.44140625
ed 1.2993812561035156e-05
, 0.341796875
▁his 0.71826171875
▁voice 0.4140625
▁filled 2.505859375
▁with 0.0004565715789794922
▁a 2.453125
▁renew 1.8154296875
ed 7.081031799316406e-05
▁sense 0.162109375
▁of 2.86102294921875e-05
▁hope 1.314453125
. 0.12249755859375
<0x0A> 0.1759033203125
With 3.130859375
▁their 3.4375
▁jump 3.015625
, 6.01953125
▁they 0.82080078125
▁had 0.07000732421875
▁bought 1.6396484375
▁themselves 0.2939453125
▁a 1.333984375
▁pre 2.111328125
cious 2.7894973754882812e-05
▁moment 1.9853515625
▁of 0.345947265625
▁resp 0.9296875
ite 0.000720977783203125
▁and 4.77734375
▁a 1.40625
▁chance 0.1986083984375
▁to 0.297607421875
▁fight 2.90625
▁back 0.06866455078125
▁against 4.171875
▁their 0.360595703125
▁ag 3.421875
gress 0.0014133453369140625
ors 0.033599853515625
. 0.00873565673828125
▁The 2.12890625
▁crew 1.611328125
▁spr 2.5703125
ang 0.21923828125
▁into 0.032470703125
▁action 0.0028514862060546875
, 0.05126953125
▁their 1.515625
▁training 3.138671875
▁kick 1.5205078125
ing 0.0001703500747680664
▁in 0.030975341796875
▁as 0.416748046875
▁they 0.05169677734375
▁fired 4.28515625
▁back 1.7529296875
▁with 1.7529296875
▁everything 0.86962890625
▁they 0.01070404052734375
▁had 0.004901885986328125
. 0.09100341796875
<0x0A> 1.0205078125
Min 9.21875
ute 5.3359375
▁after 1.6484375
▁minute 0.1141357421875
, 0.56884765625
▁the 0.2376708984375
▁battle 0.6162109375
▁ra 0.042266845703125
ged 0.00013494491577148438
▁on 0.1796875
, 0.2122802734375
▁each 3.6328125
▁shot 4.26953125
▁counting 5.328125
▁and 3.146484375
▁every 1.748046875
▁man 5.1328125
eu 0.5029296875
ver 0.0002503395080566406
▁calculated 2.1875
. 1.578125
▁Marcus 0.90673828125
▁felt 2.341796875
▁the 0.96875
▁weight 1.8876953125
▁of 0.00411224365234375
▁responsibility 1.306640625
▁upon 1.865234375
▁his 0.12420654296875
▁shoulders 0.00365447998046875
, 0.1513671875
▁but 0.9755859375
▁it 5.05078125
▁only 1.44140625
▁fue 1.5322265625
led 2.384185791015625e-07
▁his 0.168701171875
▁determ 0.978515625
ination 2.9802322387695312e-06
▁to 0.59033203125
▁protect 3.392578125
▁his 0.042022705078125
▁crew 0.2039794921875
▁and 0.5615234375
▁prove 6.95703125
▁that 1.0390625
▁hope 5.0859375
▁could 1.1962890625
▁def 6.84375
y 0.0008382797241210938
▁the 0.74755859375
▁dark 4.26171875
est 0.040924072265625
▁odd 1.091796875
s 2.5033950805664062e-05
. 0.007305145263671875
<0x0A> 0.039276123046875
As 0.76123046875
▁the 0.13330078125
▁last 5.0390625
▁al 2.380859375
ien 0.002105712890625
▁ship 0.1875
▁expl 1.51171875
oded 0.0003535747528076172
▁into 1.041015625
▁a 0.49658203125
▁fire 3.025390625
ball 0.0066375732421875
, 0.25341796875
▁Marcus 0.424560546875
▁took 2.638671875
▁a 0.03497314453125
▁deep 0.56396484375
▁breath 0.0209197998046875
, 0.67431640625
▁allowing 3.517578125
▁himself 0.52392578125
▁a 0.395751953125
▁moment 0.1722412109375
▁of 0.8759765625
▁relief 0.97021484375
. 0.18505859375
▁They 1.4326171875
▁had 0.02142333984375
▁done 2.642578125
▁it 0.00984954833984375
. 1.2919921875
▁Again 3.21484375
st 0.0008511543273925781
▁all 0.07464599609375
▁expect 4.9375
ations 7.355213165283203e-05
, 0.052703857421875
▁they 0.10968017578125
▁had 0.0140228271484375
▁emer 2.166015625
ged 6.401538848876953e-05
▁vict 0.09991455078125
orious 0.0043487548828125
. 0.85205078125
<0x0A> 0.448974609375
" 1.4033203125
That 4.375
▁was 0.5791015625
▁some 3.0
▁man 6.76953125
eu 0.0042724609375
ver 0.0010862350463867188
, 0.400390625
▁Captain 0.1881103515625
," 0.235107421875
▁Al 1.091796875
vare 0.0005488395690917969
z 3.719329833984375e-05
▁said 0.75048828125
, 0.344482421875
▁a 2.53515625
▁smile 1.4892578125
▁of 2.90625
▁adm 0.771484375
iration 4.744529724121094e-05
▁et 3.513671875
ched 0.01273345947265625
▁across 2.017578125
▁his 0.021636962890625
▁face 0.03070068359375
. 0.00811767578125
<0x0A> 0.90478515625
M 0.339599609375
arc 4.553794860839844e-05
us 5.2928924560546875e-05
▁nod 1.3720703125
ded 0.00012350082397460938
, 0.54150390625
▁his 0.91357421875
▁gaz 2.572265625
e 7.200241088867188e-05
▁still 2.6796875
▁fixed 0.89599609375
▁on 0.1959228515625
▁the 0.00762939453125
▁rem 4.62109375
n 0.00685882568359375
ants 3.933906555175781e-06
▁of 0.0003077983856201172
▁the 0.1309814453125
▁enemy 2.421875
▁fleet 0.337158203125
. 0.2388916015625
▁" 0.38037109375
S 5.5078125
ometimes 0.162841796875
, 0.44921875
▁when 2.296875
▁all 1.5107421875
▁seems 0.98583984375
▁lost 0.05938720703125
, 0.016937255859375
▁we 1.6162109375
▁must 1.2705078125
▁sum 4.03125
mon 8.153915405273438e-05
▁our 0.8779296875
▁courage 1.361328125
▁and 0.0975341796875
▁push 2.93359375
▁beyond 3.3671875
▁our 0.343505859375
▁limits 0.2440185546875
. 0.170166015625
▁We 1.572265625
▁may 3.296875
▁surprise 9.7265625
▁even 2.64453125
▁ourselves 0.006793975830078125
." 0.90185546875
<0x0A> 0.0253448486328125
He 2.208984375
▁knew 2.55859375
▁that 0.150634765625
▁this 1.7568359375
▁victory 1.966796875
▁was 1.9755859375
▁more 4.08984375
▁than 0.0277252197265625
▁just 0.1949462890625
▁a 0.1744384765625
▁tact 2.318359375
ical 0.00012183189392089844
▁triumph 1.6259765625
; 0.431640625
▁it 0.005107879638671875
▁was 0.10418701171875
▁a 0.08941650390625
▁re 6.7421875
aff 0.1328125
irm 0.0005064010620117188
ation 0.0008912086486816406
▁of 0.02203369140625
▁the 1.5322265625
▁ind 3.75390625
om 0.00510406494140625
itable 0.0153350830078125
▁spirit 0.6064453125
▁that 0.947265625
▁res 4.40234375
ided 0.1654052734375
▁within 0.1890869140625
▁every 0.92333984375
▁star 4.62890625
ship 0.10565185546875
▁captain 0.89892578125
. 0.71630859375
▁It 1.7841796875
▁was 0.0423583984375
▁a 0.17724609375
▁test 1.998046875
ament 0.0016984939575195312
▁to 0.01021575927734375
▁the 0.133056640625
▁power 0.89599609375
▁of 0.0031871795654296875
▁hope 0.40771484375
, 0.94384765625
▁of 1.5703125
▁belief 2.91796875
▁in 0.99560546875
▁the 2.33984375
▁face 1.1845703125
▁of 5.7578086853027344e-05
▁over 1.810546875
wh 0.0003199577331542969
el 1.704692840576172e-05
ming 1.9073486328125e-06
▁odd 0.19970703125
s 2.09808349609375e-05
. 0.1253662109375
<0x0A> 0.1337890625
M 1.7099609375
arc 0.0047607421875
us 7.152557373046875e-06
▁turned 1.3310546875
▁to 0.263427734375
▁his 0.291748046875
▁crew 0.192626953125
, 0.156494140625
▁pride 6.56640625
▁sw 1.458984375
elling 0.0015001296997070312
▁within 0.53662109375
▁him 0.337158203125
. 0.324462890625
▁" 0.5
We 1.7939453125
' 2.3828125
ve 0.2462158203125
▁weather 3.927734375
ed 3.159046173095703e-05
▁the 0.505859375
▁storm 0.06524658203125
▁together 4.47265625
, 0.301513671875
▁and 0.1510009765625
▁in 5.14453125
▁our 3.8359375
▁unity 2.208984375
, 0.491455078125
▁we 0.0216217041015625
▁found 3.88671875
▁the 0.5576171875
▁strength 0.1575927734375
▁to 0.0609130859375
▁prev 1.6240234375
ail 2.181529998779297e-05
. 0.1690673828125
▁Let 1.5986328125
▁this 0.76416015625
▁victory 3.1484375
▁be 0.7705078125
▁a 0.08843994140625
▁rem 0.27783203125
inder 2.574920654296875e-05
▁that 0.736328125
▁no 1.5107421875
▁matter 0.62841796875
▁how 0.27978515625
▁dire 1.2822265625
▁the 0.1046142578125
▁circumstances 1.2578125
, 0.374755859375
▁we 0.6357421875
▁will 2.4140625
▁always 0.66259765625
▁find 1.21875
▁a 0.129150390625
▁way 0.025665283203125
▁to 0.3310546875
▁rise 2.7109375
." 4.77734375
<0x0A> 0.0648193359375
As 1.4169921875
▁the 0.456298828125
▁crew 1.853515625
▁er 4.11328125
upt 0.0006475448608398438
ed 2.6106834411621094e-05
▁in 0.6591796875
▁app 2.06640625
la 1.2993812561035156e-05
use 0.00026988983154296875
, 0.31884765625
▁Marcus 0.06036376953125
▁couldn 3.7578125
' 0.0008831024169921875
t 6.9141387939453125e-06
▁help 0.0169525146484375
▁but 0.03131103515625
▁think 3.048828125
▁that 2.1796875
▁perhaps 1.458984375
, 1.171875
▁just 0.615234375
▁perhaps 0.121826171875
, 0.0031375885009765625
▁this 2.15625
▁was 1.3564453125
▁not 3.859375
▁their 2.533203125
▁last 0.8330078125
▁trick 8.140625
▁up 1.615234375
▁their 0.0282440185546875
▁sle 0.0019016265869140625
e 5.900859832763672e-05
ves 1.9501953125
. 0.266357421875
▁For 4.91015625
▁they 3.951171875
▁were 1.5634765625
▁expl 4.609375
or 0.0002307891845703125
ers 2.110004425048828e-05
, 0.227294921875
▁f 6.73046875
igh 0.0196990966796875
ters 0.0001100301742553711
, 0.04022216796875
▁and 0.1685791015625
▁guard 5.2265625
ians 0.0009832382202148438
▁of 0.386474609375
▁the 0.1669921875
▁stars 2.345703125
, 0.6826171875
▁forever 6.23046875
▁ready 2.873046875
▁to 0.0677490234375
▁face 1.3544921875
▁the 0.86474609375
▁unknown 0.7197265625
. 1.5478515625
