▁The 10.375
▁Pent 9.0859375
ec 3.89453125
ost 4.21484375
al 3.453125
ist 6.5
▁movement 7.6640625
, 3.11328125
▁with 5.02734375
▁information 7.9921875
_ 9.6796875
techn 7.0234375
ology 1.0390625
▁stress 11.7109375
▁on 3.39453125
▁the 1.455078125
▁Holy 8.859375
▁Spirit 2.521484375
, 1.5517578125
▁speaking 9.484375
▁in 1.55859375
▁tong 1.103515625
ues 1.2080078125
, 1.1396484375
▁and 3.341796875
▁divine 7.953125
▁he 2.775390625
aling 0.0711669921875
, 1.2998046875
▁has 5.54296875
▁long 5.82421875
▁been 1.298828125
▁distinguish 11.2109375
▁from 3.314453125
▁other 3.369140625
▁Christian 3.9375
▁app 9.8671875
ell 2.439453125
ation 1.1923828125
▁aside 10.75
▁information 6.5234375
_ 1.595703125
techn 0.09014892578125
ology 0.012420654296875
▁alone 9.2265625
▁doctrine 8.234375
▁and 3.322265625
▁practices 7.8828125
. 3.001953125
▁These 5.01953125
▁do 5.40625
ctr 0.0814208984375
inal 1.7021484375
▁differences 4.0390625
▁have 2.53125
, 4.87890625
▁unfortunately 4.8671875
, 0.055419921875
▁prevent 4.46875
▁many 8.25
▁denomin 5.515625
ations 0.2041015625
▁from 0.37060546875
▁fully 3.91015625
▁recogn 3.576171875
izing 0.0224761962890625
▁the 1.3251953125
▁authentic 5.34375
ity 1.0751953125
▁of 0.41162109375
▁the 1.6279296875
▁Pent 5.125
ec 0.03497314453125
ost 0.0002161264419555664
al 0.12353515625
ist 5.5078125
▁movement 0.56201171875
. 0.90380859375
<0x0A> 1.3017578125
One 5.17578125
▁of 0.7587890625
▁the 0.0706787109375
▁identify 13.8828125
▁do 5.046875
ctr 0.0198211669921875
inal 0.33837890625
▁differences 0.28515625
▁bet 9.125
wi 1.1162109375
xt 0.0007567405700683594
▁Pent 1.470703125
ec 0.004730224609375
ost 0.00571441650390625
al 0.56787109375
▁campaign 12.2890625
▁and 1.078125
▁other 2.1953125
▁Christian 0.63623046875
▁denomin 2.25390625
ations 0.048980712890625
▁lies 5.1953125
▁ind 9.4375
ium 6.43359375
▁their 3.1796875
▁understanding 3.30078125
▁and 3.12109375
▁receive 9.4609375
▁of 0.55322265625
▁the 0.50927734375
▁Holy 2.173828125
▁Spirit 0.412841796875
. 0.4267578125
▁unlike 10.296875
▁erst 11.3203125
while 0.13037109375
▁den 4.98046875
om 0.226318359375
ination 0.0192108154296875
▁which 5.0546875
▁may 5.2734375
▁visual 7.80859375
ize 1.763671875
▁the 0.5712890625
▁holy 5.28515625
_ 9.140625
place 7.33984375
▁Spirit 2.466796875
▁as 0.83642578125
▁Associ 13.4765625
ate 0.321533203125
_ 6.11328125
in 1.0927734375
_ 0.08807373046875
N 0.94921875
urs 0.024658203125
ing 0.006946563720703125
▁abstract 6.43359375
▁the 6.26171875
ological 2.27734375
▁concept 1.458984375
, 0.748046875
▁Pent 1.90234375
ec 0.0006899833679199219
ost 0.004749298095703125
als 2.072265625
▁believe 3.06640625
▁in 1.833984375
▁the 0.65283203125
▁immediate 6.921875
▁and 2.783203125
▁on 4.6640625
- 1.4453125
going 1.7216796875
▁work 2.626953125
▁of 0.38720703125
▁the 0.11456298828125
▁holy 1.919921875
_ 0.1280517578125
place 0.11749267578125
▁spirit 3.671875
▁ind 5.0625
ium 0.277099609375
▁their 1.9853515625
▁lives 0.998046875
. 0.4609375
▁They 3.302734375
▁verify 9.28125
▁that 1.134765625
▁the 0.60205078125
▁Holy 1.458984375
▁tone 12.640625
▁emp 6.875
ow 0.2188720703125
ers 0.0014181137084960938
▁bel 2.916015625
ie 0.0094146728515625
ver 4.03515625
▁with 2.451171875
▁spiritual 3.42578125
▁g 1.0791015625
ifts 0.01407623291015625
, 1.1376953125
▁allow 8.0859375
_ 5.875
in 3.90234375
▁sp 8.1953125
ill 6.3203125
_ 3.373046875
the 2.994140625
_ 0.1259765625
beans 0.367919921875
▁in 4.8359375
▁tong 5.7890625
ues 0.003322601318359375
, 0.308349609375
▁prop 5.23828125
he 0.0264434814453125
cy 0.09307861328125
, 0.1842041015625
▁and 1.59375
▁he 2.501953125
aling 0.11505126953125
. 0.432373046875
▁These 3.814453125
▁unique 6.16015625
▁expression 9.421875
▁of 1.1005859375
▁the 0.45263671875
▁Holy 1.150390625
▁spirit 3.125
▁are 1.5556640625
▁seen 5.06640625
▁by 2.876953125
▁many 3.67578125
▁app 9.171875
ell 0.11083984375
ation 0.88427734375
▁vit 12.328125
amin 0.06683349609375
_ 6.92578125
A 3.349609375
▁excess 8.984375
ive 0.9990234375
▁and 3.2421875
▁unnecessary 8.796875
, 2.28515625
▁lead 9.515625
▁to 1.626953125
▁doubt 7.28515625
▁about 3.193359375
▁the 0.6376953125
▁serious 7.01171875
ness 0.2115478515625
▁and 2.470703125
▁authentic 2.978515625
ity 0.0443115234375
▁of 0.10345458984375
▁the 0.64404296875
▁Pent 1.31640625
ec 0.001064300537109375
ost 0.0029125213623046875
al 0.016448974609375
▁movement 1.5048828125
. 0.357177734375
<0x0A> 0.493408203125
F 4.59375
ur 0.65869140625
ther 0.0031452178955078125
more 0.326171875
, 0.0855712890625
▁the 2.1015625
▁use 6.6328125
▁of 0.295166015625
▁speaking 6.15625
▁In 7.6484375
▁tong 0.057220458984375
ues 0.0062103271484375
, 1.8740234375
▁known 6.05078125
▁as 0.413330078125
▁gl 3.740234375
oss 0.00966644287109375
ol 0.541015625
alia 0.05926513671875
, 0.54296875
▁indu 9.28125
ce 0.458740234375
▁produce 11.203125
▁a 2.123046875
▁deep 5.40234375
▁divide 3.64453125
▁between 1.1640625
▁Pent 0.79931640625
ec 0.0007123947143554688
ost 0.0027179718017578125
als 1.091796875
▁and 0.1351318359375
▁other 0.64501953125
▁Christian 0.406005859375
▁denomin 0.392822265625
ations 0.004772186279296875
. 0.1663818359375
▁piece 14.1875
▁approximately 9.265625
▁denomin 7.41796875
ations 0.091796875
▁interpret 6.0390625
▁speaking 1.9365234375
▁ind 4.046875
ium 0.11419677734375
▁tongue 6.01953125
▁vit 11.8125
amin 0.006816864013671875
_ 0.216796875
A 0.035247802734375
▁an 4.78515625
▁ancient 6.70703125
▁phenomen 4.9453125
on 0.01416015625
▁that 3.083984375
▁indu 7.1796875
ce 0.003932952880859375
▁ceased 7.28125
▁to 1.830078125
▁exist 1.30078125
, 1.3740234375
▁Pent 0.744140625
ec 0.0004963874816894531
ost 0.0029697418212890625
als 0.1575927734375
▁view 2.70703125
▁it 1.7236328125
▁as 0.34375
▁vit 5.38671875
amin 0.01172637939453125
_ 0.12548828125
A 0.01288604736328125
▁co 10.03125
et 6.25
aneous 0.43701171875
▁end 8.109375
ow 0.841796875
▁from 7.4609375
▁the 0.41552734375
▁holy 0.62158203125
_ 0.056488037109375
place 0.083251953125
▁Spirit 1.2158203125
. 0.509765625
▁This 3.125
▁deviation 8.0546875
▁In 10.3125
▁understanding 5.85546875
▁has 2.58984375
▁led 2.197265625
▁to 0.495849609375
▁ske 7.5703125
ptic 0.115966796875
ism 0.014190673828125
▁and 1.1845703125
▁out 5.6875
right 1.34375
▁re 3.1328125
jection 0.056060791015625
▁of 0.78466796875
▁Pent 0.99365234375
ec 0.000545501708984375
ost 0.0025501251220703125
al 0.369384765625
▁practices 4.7578125
, 2.84375
▁with 3.935546875
▁many 1.978515625
▁den 3.048828125
om 0.0372314453125
ination 0.0321044921875
▁see 5.5703125
▁them 2.212890625
▁anti 9.703125
oph 11.3515625
th 0.000492095947265625
al 0.0014858245849609375
mic 0.008697509765625
_ 2.833984375
factor 0.1298828125
▁evidence 7.96875
▁of 0.90771484375
▁emot 7.09765625
ional 0.1353759765625
ism 0.61669921875
▁or 2.8046875
▁evening 14.6953125
▁di 7.7265625
abol 2.013671875
ic 2.3125
▁influence 3.1875
. 0.14306640625
<0x0A> 0.37255859375
Add 5.078125
itionally 0.2340087890625
, 0.042694091796875
▁the 1.640625
▁Pent 1.0302734375
ec 0.0007481575012207031
ost 0.0011138916015625
al 0.0195770263671875
ist 2.84375
▁emphas 6.86328125
is 0.252197265625
▁on 0.2529296875
▁divine 5.23828125
▁cur 12.390625
ative 0.77197265625
▁as 5.625
▁vit 3.44140625
amin 0.0018157958984375
_ 0.055023193359375
A 0.006679534912109375
▁central 5.01953125
▁aspect 3.876953125
▁of 0.178955078125
▁their 0.669921875
▁faith 1.2998046875
▁stim 9.9296875
ulate 1.01171875
▁further 4.6953125
▁isolated 9.4375
▁the 2.427734375
▁movement 1.2607421875
▁from 0.36376953125
▁other 0.29736328125
▁denomin 2.365234375
ations 0.03973388671875
. 0.2388916015625
▁While 3.8671875
▁all 3.65234375
▁Christians 2.6953125
▁believe 2.2265625
▁ind 4.3359375
ium 0.0006699562072753906
▁the 0.93505859375
▁power 3.482421875
▁of 0.23681640625
▁prayer 3.087890625
▁and 1.51171875
▁the 2.0390625
▁possibility 6.05859375
▁of 0.19921875
▁divine 1.79296875
▁he 0.52734375
aling 0.0268096923828125
, 0.0762939453125
▁Pent 0.84228515625
ec 0.0002875328063964844
ost 0.0014209747314453125
als 0.280029296875
▁have 3.66015625
▁a 1.7802734375
▁fer 6.47265625
vent 0.0916748046875
▁belief 1.09765625
▁that 1.2294921875
▁de 8.421875
ity 1.5126953125
▁can 2.484375
▁mi 5.79296875
rac 0.05877685546875
ul 0.003570556640625
ously 0.065185546875
▁he 0.845703125
al 0.0140380859375
▁any 3.951171875
▁a 2.296875
il 0.015228271484375
ment 0.032012939453125
. 0.98681640625
▁This 1.7890625
▁firm 7.82421875
▁conv 5.5
iction 0.0202789306640625
▁has 1.078125
▁lead 2.802734375
▁to 0.33740234375
▁unf 7.6328125
avor 1.3662109375
able 0.03118896484375
_ 7.40625
jud 5.83984375
gment 0.294189453125
▁from 2.607421875
▁other 0.94970703125
▁denomin 1.3671875
ations 0.0406494140625
, 0.8798828125
▁who 1.7275390625
▁acc 5.625
use 0.267822265625
▁Pent 0.8740234375
ec 0.0003287792205810547
ost 0.0012884140014648438
als 0.2978515625
▁of 0.133544921875
▁being 2.78125
▁over 4.609375
ly 0.49169921875
▁reli 4.5
ant 0.01047515869140625
▁along 12.7734375
▁faith 12.7578125
▁cur 5.8828125
ative 0.0119781494140625
▁and 1.58203125
▁dis 3.912109375
reg 0.432373046875
arding 0.7529296875
▁the 1.255859375
▁grand 11.671875
ness 4.17578125
▁of 0.129150390625
▁medical 3.05078125
▁science 1.376953125
. 0.2115478515625
<0x0A> 0.324462890625
U 5.29296875
lt 0.46728515625
imately 0.023223876953125
, 0.0447998046875
▁these 2.75390625
▁do 0.86279296875
ctr 0.007648468017578125
inal 0.006717681884765625
▁deviation 9.25
▁prevent 7.91015625
▁the 1.837890625
▁Pent 0.466064453125
ec 0.00047779083251953125
ost 0.0011644363403320312
al 0.01141357421875
▁campaign 4.03125
▁from 0.202392578125
▁represent 10.0625
▁recognized 7.05859375
▁as 0.9892578125
▁legit 3.73828125
imate 0.02935791015625
▁by 2.65625
▁many 3.154296875
▁den 2.921875
om 0.004016876220703125
ination 0.0167999267578125
▁due 6.12109375
▁to 0.141357421875
▁a 3.6015625
▁lack 2.060546875
▁of 0.156982421875
▁understanding 1.9736328125
, 3.767578125
▁fear 5.18359375
▁of 1.77734375
▁the 2.244140625
▁unknown 2.65234375
, 0.10626220703125
▁and 0.306884765625
▁a 2.2109375
▁hope 6.48828125
▁to 2.076171875
▁maintain 3.294921875
▁long 7.4921875
- 0.3330078125
h 2.77734375
eld 0.00652313232421875
▁trad 2.5703125
itions 0.0021877288818359375
▁and 1.5908203125
▁belief 1.619140625
s 0.06573486328125
. 0.249755859375
▁The 3.3203125
▁un 5.20703125
famil 4.43359375
iar 0.008453369140625
▁practices 6.30078125
▁and 1.3642578125
▁ac 9.078125
ute 1.7587890625
▁spiritual 4.1796875
▁experience 3.8828125
▁associate 7.29296875
▁with 2.123046875
▁Pent 0.904296875
ec 0.0006756782531738281
ost 0.000682830810546875
al 0.07684326171875
ism 0.3876953125
▁have 1.951171875
▁raised 6.71484375
▁susp 3.703125
ic 1.259765625
ions 0.0002906322479248047
▁and 1.224609375
▁ske 3.033203125
ptic 0.0201873779296875
ism 0.0063934326171875
, 3.068359375
▁leading 3.04296875
▁many 1.37890625
▁denomin 2.4140625
ations 0.080810546875
▁to 0.09814453125
▁view 2.4140625
▁the 0.91455078125
▁movement 1.0498046875
▁as 0.40234375
▁out 4.8203125
do 8.4453125
ors 1.6650390625
▁the 2.20703125
▁b 4.953125
ounce 7.296875
▁of 0.49853515625
▁orth 3.90234375
odox 0.01323699951171875
▁Christian 0.403564453125
ity 0.26611328125
. 0.263671875
<0x0A> 0.52490234375
In 3.38671875
▁conclusion 1.1240234375
, 0.022186279296875
▁the 0.96240234375
▁do 2.84765625
ctr 0.003643035888671875
inal 0.01207733154296875
▁differences 0.95849609375
▁bet 2.158203125
wi 0.0018301010131835938
xt 0.004352569580078125
▁Pent 0.267333984375
ec 0.0006890296936035156
ost 0.000614166259765625
al 0.057769775390625
▁movements 6.87109375
▁and 0.19140625
▁other 0.11846923828125
▁Christian 0.07489013671875
▁app 5.3515625
ell 0.003326416015625
ation 0.1298828125
▁have 2.01953125
▁h 5.11328125
inder 0.289306640625
ed 0.0870361328125
▁the 0.479736328125
▁recognition 3.15625
▁and 1.8291015625
▁accept 1.4052734375
ance 0.0157012939453125
▁of 0.04156494140625
▁pent 4.55078125
ec 0.0093536376953125
ost 0.0037670135498046875
al 0.042816162109375
ism 0.52587890625
▁as 1.4677734375
▁legit 1.44140625
imate 0.01015472412109375
▁d 9.5703125
igr 5.3125
ession 0.0037479400634765625
▁many 8.1875
. 5.5625
▁The 2.40234375
▁focus 7.0625
▁on 0.267578125
▁the 1.361328125
▁Holy 2.31640625
▁Spirit 0.35791015625
' 3.326171875
s 0.0294647216796875
▁actu 11.3203125
ate 3.8671875
▁work 4.87109375
, 2.021484375
▁the 1.3876953125
▁exercise 7.84765625
▁of 0.09747314453125
▁speaking 0.98681640625
▁in 0.9150390625
▁tong 0.01061248779296875
ues 0.0013647079467773438
, 0.1844482421875
▁and 0.59326171875
▁the 0.5458984375
▁emphas 3.345703125
is 0.01605224609375
▁along 11.1796875
▁divine 0.441162109375
▁he 0.75048828125
aling 0.01146697998046875
▁have 0.888671875
▁caused 3.404296875
▁ske 4.66796875
ptic 0.03900146484375
ism 0.003513336181640625
, 3.041015625
▁misunder 3.05859375
standing 0.1016845703125
, 0.061187744140625
▁and 0.081298828125
▁re 2.474609375
jection 0.00783538818359375
. 2.525390625
▁It 4.6640625
▁is 0.58203125
▁of 4.96875
_ 8.234375
import 4.74609375
▁for 8.7421875
▁wh 10.15625
olly 3.0234375
▁Christian 2.04296875
▁to 2.50390625
▁eng 6.578125
age 0.2362060546875
▁ind 6.20703125
ium 0.0035037994384765625
▁respect 6.5
ful 0.96923828125
▁dialog 2.224609375
▁and 4.30078125
▁st 6.89453125
rive 0.320556640625
▁for 2.3671875
▁unity 4.06640625
, 2.27734375
▁understanding 2.75390625
, 0.077392578125
▁and 0.055084228515625
▁ad 7.41015625
option 2.384765625
▁of 0.49658203125
▁unlike 12.671875
▁do 2.59765625
ctr 0.0009627342224121094
inal 0.1927490234375
▁pers 3.859375
pect 0.00543975830078125
ives 0.0004291534423828125
, 3.169921875
▁spot 11.359375
▁that 3.978515625
▁despite 6.8359375
▁our 3.9375
▁differences 0.6005859375
, 0.2783203125
▁our 3.603515625
▁div 6.69921875
vy 7.3125
_ 4.7421875
up 6.6875
▁faith 4.3984375
▁in 1.7041015625
▁Jesus 2.0859375
▁Christ 0.448486328125
▁should 3.796875
▁be 1.8896484375
▁the 1.5986328125
▁source 5.42578125
▁of 0.1016845703125
▁our 0.74072265625
▁unity 0.99267578125
. 0.65673828125
