▁In 10.375
▁Ad 6.3671875
orno 8.2109375
' 4.984375
s 0.3173828125
▁concept 9.7109375
▁of 1.373046875
▁industrial 9.1796875
▁culture 6.66796875
, 1.21875
▁medium 9.390625
▁products 8.140625
▁for 5.234375
▁children 9.2421875
▁are 3.341796875
▁seen 6.45703125
▁vit 13.734375
amin 2.6015625
_ 9.6484375
A 6.90625
▁extensions 12.59375
▁of 3.345703125
▁capital 8.5390625
ist 3.078125
▁values 6.09765625
. 2.1875
▁Ad 4.2578125
orno 1.5283203125
▁arg 4.64453125
ues 0.004421234130859375
▁that 0.432861328125
▁these 3.591796875
▁products 1.8095703125
, 3.125
▁such 3.34375
▁vit 7.28515625
amin 0.079345703125
_ 1.1455078125
A 0.2822265625
▁children 5.78515625
' 0.78466796875
s 0.0289154052734375
▁television 3.986328125
▁shows 1.568359375
▁and 1.544921875
▁mov 4.96484375
ies 0.0008134841918945312
, 0.30126953125
▁are 1.2041015625
▁created 5.3671875
▁with 3.087890625
▁the 0.87060546875
▁l 8.40625
one 4.69921875
▁capt 12.7890625
ive 1.302734375
▁of 3.6875
▁generating 9.125
▁profit 3.068359375
▁for 1.6240234375
▁corpor 3.20703125
ations 0.26708984375
. 1.0537109375
▁They 4.828125
▁upgrade 12.875
▁consumer 6.69921875
ism 0.7734375
▁and 1.6220703125
▁encou 4.69921875
rage 0.00013446807861328125
▁child 4.86328125
▁to 4.86328125
▁go 6.19921875
▁pass 8.3828125
ive 0.64111328125
_ 5.58984375
voice 8.6171875
▁consum 4.37890625
ers 0.10516357421875
▁in 3.501953125
▁a 2.41015625
▁capital 2.412109375
ist 0.444580078125
▁society 0.90087890625
. 0.37109375
▁This 3.83203125
▁perspective 6.90234375
▁align 6.18359375
s 0.013702392578125
▁with 0.19970703125
▁the 1.767578125
▁Marx 4.08984375
ist 0.24951171875
▁review 10.078125
▁of 1.36328125
▁capital 0.8671875
ism 0.2734375
. 1.1787109375
<0x0A> 2.3046875
A 3.9375
▁prominent 7.9921875
▁illustr 6.83203125
ation 0.0992431640625
▁of 0.25048828125
▁media 6.94140625
▁w 8.9296875
are 4.2265625
▁rein 11.0
for 0.21044921875
cing 0.55224609375
▁capital 0.947265625
istic 3.31640625
▁values 1.0
▁can 3.484375
▁be 0.031951904296875
▁visual 8.4375
ize 6.02734375
▁ind 11.84375
ium 5.359375
▁the 1.3369140625
▁vast 7.5546875
▁total 9.71875
▁of 0.60009765625
▁mer 5.59765625
ch 0.065185546875
and 0.0650634765625
ise 0.241455078125
▁associated 6.67578125
▁with 0.11480712890625
▁popular 4.73828125
▁children 2.515625
' 0.1876220703125
s 0.03857421875
▁franch 6.61328125
ises 0.1094970703125
. 0.8076171875
▁For 2.59765625
▁instance 1.1708984375
, 0.0369873046875
▁the 1.6318359375
▁winner 11.078125
▁of 2.18359375
▁animated 7.76171875
▁films 3.01953125
▁like 3.337890625
▁the 2.76171875
▁" 2.990234375
F 3.259765625
ro 0.689453125
zen 0.002246856689453125
" 0.341552734375
▁serial 10.6484375
▁goes 8.875
▁Army 16.828125
_ 2.80078125
for 5.83984375
_ 0.6923828125
the 2.794921875
_ 0.350830078125
L 4.98828125
iber 4.14453125
ation 0.35595703125
_ 0.243896484375
of 0.392578125
_ 0.057586669921875
R 2.58984375
w 5.078125
anda 0.005786895751953125
▁beyond 7.59375
▁the 1.353515625
▁log 11.078125
e 6.16015625
▁office 9.3359375
▁re 7.10546875
venue 1.9638671875
. 2.306640625
▁information 14.515625
_ 0.763671875
techn 4.53125
ology 0.051025390625
▁en 9.5
comp 1.8623046875
ass 0.0026264190673828125
es 0.6162109375
▁a 2.123046875
▁across 11.4296875
- 1.0830078125
the 0.01151275634765625
- 0.04974365234375
board 0.0352783203125
▁range 3.654296875
▁of 0.09197998046875
▁mer 2.19140625
ch 0.00551605224609375
and 0.01515960693359375
ise 0.05474853515625
, 1.5205078125
▁including 1.6943359375
▁to 2.1484375
ys 0.059326171875
, 0.1812744140625
▁cl 2.591796875
othing 0.0023517608642578125
, 0.09649658203125
▁and 2.05078125
▁access 3.9296875
ories 0.023101806640625
. 0.78271484375
▁These 3.474609375
▁products 0.82275390625
▁represent 5.45703125
▁not 5.078125
▁just 2.3671875
▁mean 10.015625
▁to 3.4921875
▁entertain 3.16015625
▁children 1.1826171875
, 0.77783203125
▁but 0.083740234375
▁also 0.888671875
▁to 1.228515625
▁create 4.0234375
▁demand 6.8046875
▁for 0.47216796875
▁consumer 3.150390625
▁goods 0.58447265625
. 0.9541015625
▁The 2.630859375
▁media 3.8203125
▁plays 6.0546875
▁vit 5.3984375
amin 0.006710052490234375
_ 0.1326904296875
A 0.059356689453125
▁significant 4.68359375
▁role 0.4580078125
▁in 0.181884765625
▁sh 4.10546875
aping 0.04803466796875
▁children 1.4375
' 0.1248779296875
s 0.00665283203125
▁hope 11.21875
▁and 1.5732421875
▁prefer 5.65625
ences 0.0228271484375
, 1.7373046875
▁deliber 10.2265625
ately 1.7783203125
▁prom 4.5390625
oting 0.027099609375
▁consumer 2.30078125
▁culture 3.876953125
. 0.87646484375
<0x0A> 0.552734375
Con 5.4140625
tr 2.072265625
ast 1.29296875
ing 0.8623046875
▁Ad 3.12109375
orno 0.05426025390625
' 0.308349609375
s 0.0301666259765625
▁perspective 1.91015625
, 2.5703125
▁struct 7.6015625
ural 0.034820556640625
▁functional 2.484375
ism 0.71923828125
▁suggests 4.1171875
▁that 0.2117919921875
▁medium 8.7734375
▁products 0.398681640625
▁for 5.23046875
▁children 0.5771484375
▁serve 5.15234375
_ 8.15625
up 6.88671875
▁a 2.6796875
▁more 4.015625
▁positive 4.98828125
▁function 4.609375
▁in 1.5400390625
▁society 1.01953125
. 0.427490234375
▁According 3.09765625
▁to 0.025970458984375
▁this 1.609375
▁approach 3.8671875
, 0.060211181640625
▁these 3.28515625
▁products 0.23583984375
▁ful 5.9609375
fill 0.09417724609375
▁children 3.671875
' 0.1942138671875
s 0.003452301025390625
▁development 4.640625
al 0.1680908203125
▁and 3.55859375
▁educational 2.4296875
▁needs 0.3369140625
, 2.0234375
▁providing 2.896484375
▁them 1.392578125
▁with 0.158447265625
▁entertain 5.8046875
ing 1.62109375
▁and 1.423828125
▁inform 2.548828125
ative 0.1436767578125
▁content 1.69921875
. 0.517578125
▁For 2.302734375
▁instance 0.471435546875
, 0.00887298583984375
▁educational 3.708984375
▁show 7.796875
▁like 1.8271484375
▁" 0.93212890625
S 0.25341796875
es 0.0057220458984375
ame 0.0192718505859375
▁Street 0.23046875
" 0.086181640625
▁have 4.71875
▁const 9.7890625
itute 1.0087890625
▁pra 9.640625
ised 2.1015625
▁for 1.1171875
▁their 0.8798828125
▁power 7.34375
▁to 0.54052734375
▁fost 3.85546875
er 0.004825592041015625
▁learning 3.958984375
▁and 1.1181640625
▁soci 6.640625
able 3.6796875
▁development 2.197265625
▁among 2.8515625
▁children 0.362060546875
. 0.08154296875
▁Moreover 4.046875
, 0.006793975830078125
▁the 2.197265625
▁media 2.103515625
▁also 2.595703125
▁serves 2.41796875
▁to 2.185546875
▁mix 10.8984375
▁society 3.572265625
▁by 2.146484375
▁providing 1.7314453125
▁cultural 4.125
▁narr 7.1328125
atives 0.116943359375
▁and 1.015625
▁shared 5.40625
▁experiences 1.94140625
. 0.529296875
<0x0A> 1.435546875
Wh 3.65234375
ile 0.1292724609375
▁struct 1.8662109375
ural 0.00516510009765625
▁functional 0.07135009765625
ism 0.14404296875
▁acknow 7.89453125
ledge 0.0254058837890625
▁the 1.18359375
▁influence 4.37109375
▁of 0.238525390625
▁capital 3.4921875
ism 0.64404296875
▁in 1.861328125
▁medium 6.125
▁production 3.802734375
, 0.44140625
▁it 0.994140625
▁prior 9.0859375
it 0.03375244140625
ize 1.9541015625
▁the 1.0927734375
▁positive 3.115234375
▁social 3.87890625
▁contributions 5.15234375
▁of 0.59912109375
▁these 1.76953125
▁media 3.650390625
▁products 0.3916015625
. 0.308837890625
▁This 2.369140625
▁position 3.818359375
▁tends 7.2734375
▁to 0.061187744140625
▁foc 10.9609375
using 0.39208984375
▁on 0.343994140625
▁the 0.7822265625
▁potential 5.56640625
▁benefits 1.8720703125
▁for 2.927734375
▁children 0.8466796875
' 2.41015625
s 0.005710601806640625
▁growing 6.41796875
▁and 3.501953125
▁the 5.234375
▁promotion 4.2265625
▁of 0.039947509765625
▁social 1.921875
▁coh 2.125
es 0.01253509521484375
ion 0.06201171875
. 0.61328125
<0x0A> 2.072265625
In 2.765625
▁conclusion 1.77734375
, 0.014984130859375
▁media 2.392578125
▁mer 7.56640625
ch 0.0213470458984375
and 0.01617431640625
ise 0.0955810546875
▁for 3.01953125
▁children 0.062347412109375
▁dress 13.7109375
▁rein 6.46484375
force 0.767578125
▁capital 0.31640625
istic 0.44287109375
▁values 0.1717529296875
▁to 5.08203125
▁a 1.9462890625
▁significant 2.517578125
▁extent 0.96533203125
, 2.681640625
▁harm 9.6640625
on 2.2421875
ize 1.9228515625
▁to 2.826171875
▁Ad 1.546875
orno 0.00264739990234375
' 0.179931640625
s 0.006649017333984375
▁concept 4.57421875
▁of 0.67431640625
▁industrial 3.73828125
▁culture 0.429931640625
. 0.60107421875
▁Ex 7.62109375
amples 1.0322265625
▁like 3.32421875
▁the 1.5234375
▁prom 8.1171875
ot 1.919921875
ional 0.279296875
▁mer 2.9921875
ch 0.00447845458984375
and 0.0033512115478515625
ise 0.04071044921875
▁associated 2.890625
▁with 0.04608154296875
▁popular 0.677734375
▁children 0.1783447265625
' 0.07135009765625
s 0.004299163818359375
▁deal 13.1796875
ership 6.74609375
▁stress 11.0078125
▁the 0.70849609375
▁material 6.21484375
istic 1.5244140625
▁nature 2.841796875
▁underlying 8.1328125
▁these 2.94140625
▁products 0.3037109375
. 0.322021484375
▁However 2.7265625
, 0.01055908203125
▁the 2.01953125
▁perspective 6.59765625
▁of 0.712890625
▁struct 0.2391357421875
ural 0.001422882080078125
▁functional 0.0235748291015625
ism 0.017974853515625
▁offers 4.9921875
▁a 0.487548828125
▁more 0.53076171875
▁optim 3.64453125
istic 0.006504058837890625
▁view 0.90966796875
, 2.849609375
▁emphas 1.8173828125
izing 0.0634765625
▁the 0.2269287109375
▁educational 4.87109375
▁and 0.293701171875
▁un 8.65625
ifying 1.24609375
▁aspects 3.4609375
▁of 0.127197265625
▁media 1.7421875
▁products 0.4228515625
. 0.8837890625
▁While 3.6796875
▁both 2.421875
▁pers 0.79052734375
pect 0.00039958953857421875
ives 0.00011134147644042969
▁recognize 3.744140625
▁capital 4.19921875
istic 1.4833984375
▁influ 2.0
ences 0.006381988525390625
▁ind 8.0859375
ium 0.035400390625
▁media 1.29296875
▁production 1.5830078125
, 0.06048583984375
▁they 1.9072265625
▁differ 1.7001953125
▁in 0.296875
▁their 0.525390625
▁evaluation 4.109375
▁of 0.147705078125
▁the 0.73291015625
▁overall 4.1171875
▁impact 1.0859375
▁on 2.38671875
▁society 0.50048828125
▁and 3.115234375
▁children 1.326171875
. 0.388671875
