▁Introduction 7.8203125
<0x0A> 4.0
In 3.662109375
▁the 1.3818359375
▁fasc 9.7734375
in 0.1689453125
ating 0.004627227783203125
▁world 2.607421875
▁of 0.0304718017578125
▁lingu 7.1328125
istics 0.1055908203125
, 0.29296875
▁the 2.052734375
▁study 2.068359375
▁of 0.01165008544921875
▁v 8.5859375
owel 1.1484375
▁dur 13.265625
ations 0.042724609375
▁plays 4.8359375
▁a 0.413330078125
▁cru 2.263671875
cial 0.0014896392822265625
▁role 0.030609130859375
▁in 0.7890625
▁understanding 0.63671875
▁language 3.8125
▁patterns 3.826171875
▁and 0.630859375
▁communication 4.77734375
. 0.55029296875
▁V 0.73974609375
ow 1.0390625
els 2.1576881408691406e-05
▁are 0.17822265625
▁integral 7.0703125
▁to 0.55615234375
▁our 2.703125
▁speech 0.8681640625
, 0.92431640625
▁but 3.671875
▁have 3.78125
▁you 0.8486328125
▁ever 0.004543304443359375
▁wonder 0.308349609375
ed 0.0003070831298828125
▁how 0.779296875
▁stress 12.1171875
, 2.18359375
▁focus 7.59765625
, 0.181640625
▁and 0.2486572265625
▁segment 8.15625
al 0.65185546875
▁contrast 3.296875
▁influence 2.98046875
▁the 1.2763671875
▁length 1.8740234375
▁of 0.087646484375
▁these 2.310546875
▁sounds 0.71435546875
? 0.041778564453125
▁This 2.1875
▁ess 3.380859375
ay 0.0011701583862304688
▁div 5.2890625
es 0.0006589889526367188
▁into 0.309326171875
▁the 0.2423095703125
▁relationship 5.2734375
▁between 0.0179595947265625
▁stress 3.3203125
, 0.45166015625
▁focus 0.134765625
, 0.0281524658203125
▁and 0.046661376953125
▁segment 0.4111328125
al 0.01023101806640625
▁contrast 0.047760009765625
▁in 0.9443359375
▁v 0.76171875
owel 0.2081298828125
▁dur 0.9677734375
ations 0.0014019012451171875
, 0.724609375
▁shed 2.58984375
ding 2.9087066650390625e-05
▁light 0.044097900390625
▁on 0.0013837814331054688
▁their 2.908203125
▁inter 2.06640625
connected 1.1337890625
▁nature 1.5595703125
. 1.2734375
<0x0A> 0.2457275390625
Body 9.90625
<0x0A> 3.109375
To 3.689453125
▁compreh 5.26171875
end 0.0253448486328125
▁this 2.85546875
▁relationship 0.984375
, 0.075927734375
▁one 3.86328125
▁must 0.09765625
▁begin 4.7578125
▁by 0.513671875
▁understanding 1.4150390625
▁stress 2.462890625
▁in 4.44921875
▁language 2.490234375
. 0.0943603515625
▁Str 0.1595458984375
ess 0.00891876220703125
▁refers 1.322265625
▁to 0.00030231475830078125
▁the 0.06494140625
▁emphas 1.5498046875
is 0.01016998291015625
▁placed 0.335693359375
▁on 0.0024929046630859375
▁a 0.74658203125
▁particular 0.78125
▁sy 0.1304931640625
ll 6.318092346191406e-06
able 0.0005059242248535156
▁in 1.373046875
▁a 0.0330810546875
▁word 0.10626220703125
. 2.021484375
▁Str 3.65625
essed 0.92822265625
▁sy 0.061981201171875
ll 5.4836273193359375e-06
ables 0.0006504058837890625
▁typically 3.021484375
▁sound 5.4296875
▁longer 0.5185546875
, 2.080078125
▁l 0.93603515625
ou 0.0012578964233398438
der 0.00017559528350830078
, 0.00722503662109375
▁and 0.10040283203125
▁clearer 3.0234375
▁compared 4.328125
▁to 0.0014781951904296875
▁un 0.376953125
str 0.0010204315185546875
essed 0.00012362003326416016
▁ones 2.90234375
. 0.083251953125
▁This 2.087890625
▁distinction 3.09765625
▁helps 4.3515625
▁to 1.392578125
▁convey 1.826171875
▁meaning 0.79345703125
▁and 0.408203125
▁a 6.82421875
ids 0.0933837890625
▁in 0.049957275390625
▁effective 6.38671875
▁communication 0.0143890380859375
. 0.038330078125
<0x0A> 0.51611328125
F 3.46484375
ur 0.332763671875
ther 0.0002491474151611328
more 0.037384033203125
, 0.00012767314910888672
▁focus 1.4638671875
▁is 1.4033203125
▁closely 7.6875
▁associated 3.404296875
▁with 0.00039768218994140625
▁stress 0.08856201171875
. 0.55419921875
▁When 2.00390625
▁we 1.6767578125
▁want 4.58203125
▁to 0.0016794204711914062
▁bring 4.80859375
▁attention 0.0447998046875
▁to 0.0218658447265625
▁a 0.095458984375
▁specific 1.626953125
▁word 1.0654296875
▁or 0.155517578125
▁idea 2.85546875
▁in 2.48046875
▁a 0.092041015625
▁sentence 0.048614501953125
, 0.0078277587890625
▁we 0.050384521484375
▁often 1.037109375
▁use 1.13671875
▁stress 0.75634765625
▁to 0.461181640625
▁emphas 1.7177734375
ize 0.00740814208984375
▁it 0.30859375
. 0.01180267333984375
▁This 1.0283203125
▁places 8.8359375
▁more 2.390625
▁prom 4.375
in 2.1696090698242188e-05
ence 0.0004417896270751953
▁and 3.80859375
▁weight 2.142578125
▁on 0.0299224853515625
▁the 0.332275390625
▁focused 3.318359375
▁word 1.15625
, 0.505859375
▁allowing 4.46875
▁listen 2.142578125
ers 3.0994415283203125e-06
▁to 0.004619598388671875
▁better 1.490234375
▁understand 0.404541015625
▁the 1.1357421875
▁intended 1.6748046875
▁message 0.68212890625
. 0.0047760009765625
▁However 5.8828125
, 0.00012767314910888672
▁the 1.95703125
▁connection 4.8828125
▁between 0.00800323486328125
▁stress 0.232666015625
▁and 0.02191162109375
▁focus 0.01983642578125
▁in 4.421875
▁influen 11.46875
cing 0.00040221214294433594
▁v 0.049835205078125
owel 0.004123687744140625
▁dur 0.2132568359375
ations 0.00024378299713134766
▁is 0.38330078125
▁not 0.76220703125
▁as 1.2578125
▁straightforward 0.341552734375
▁as 0.58203125
▁it 0.83251953125
▁may 0.341796875
▁seem 0.1947021484375
. 0.0272064208984375
<0x0A> 0.139892578125
Seg 2.296875
ment 0.0008144378662109375
al 0.00201416015625
▁contrast 0.050933837890625
, 1.16015625
▁on 0.73583984375
▁the 4.0531158447265625e-05
▁other 0.0003266334533691406
▁hand 0.00022518634796142578
, 0.0001112222671508789
▁plays 2.98828125
▁a 0.1678466796875
▁significant 1.7421875
▁role 0.0021343231201171875
▁in 0.00492095947265625
▁determ 1.6533203125
ining 7.164478302001953e-05
▁v 0.62109375
owel 0.0005435943603515625
▁dur 0.646484375
ations 0.00010454654693603516
. 0.07781982421875
▁It 2.099609375
▁refers 0.253173828125
▁to 4.1365623474121094e-05
▁the 0.04876708984375
▁distinction 3.017578125
▁between 0.0570068359375
▁different 1.751953125
▁sounds 1.064453125
▁and 4.82421875
▁their 1.1884765625
▁respective 2.75390625
▁dur 2.24609375
ations 0.004306793212890625
▁within 2.685546875
▁a 0.2454833984375
▁language 0.69921875
. 0.030303955078125
▁For 0.8056640625
▁instance 1.24609375
, 0.00012731552124023438
▁in 1.6025390625
▁English 0.35400390625
, 0.01837158203125
▁we 2.859375
▁have 1.0419921875
▁long 2.896484375
▁and 0.26953125
▁short 0.0002918243408203125
▁v 0.055572509765625
owel 1.44140625
▁sounds 0.01224517822265625
. 1.6572265625
▁The 0.9111328125
▁contrast 6.69140625
▁between 0.0718994140625
▁these 0.06646728515625
▁sounds 1.392578125
▁cont 4.02734375
ributes 2.8252601623535156e-05
▁to 0.049530029296875
▁the 0.380859375
▁overall 2.0546875
▁rh 1.626953125
ythm 0.018310546875
▁and 0.1419677734375
▁flow 1.1513671875
▁of 0.002227783203125
▁speech 0.7353515625
. 0.7021484375
<0x0A> 0.25390625
St 5.19921875
ud 0.52294921875
ies 0.0902099609375
▁have 0.1817626953125
▁shown 0.2208251953125
▁that 0.007625579833984375
▁str 5.3984375
essed 0.006206512451171875
▁v 1.5712890625
ow 0.07220458984375
els 2.1457672119140625e-06
▁tend 0.39990234375
▁to 7.712841033935547e-05
▁be 0.21923828125
▁longer 0.1112060546875
▁in 2.86328125
▁duration 0.09521484375
▁than 1.1162109375
▁un 0.167724609375
str 0.00031447410583496094
essed 5.125999450683594e-05
▁v 1.4091796875
ow 0.0012722015380859375
els 2.1457672119140625e-06
. 0.322265625
▁This 0.4150390625
▁is 0.6064453125
▁due 1.47265625
▁to 0.1002197265625
▁the 0.061676025390625
▁increased 2.00390625
▁mus 5.9453125
cular 0.310546875
▁effort 1.431640625
▁used 5.4609375
▁to 0.50927734375
▁produce 0.4921875
▁str 1.50390625
essed 0.0024700164794921875
▁sy 1.50390625
ll 6.318092346191406e-06
ables 0.00016355514526367188
, 0.5966796875
▁allowing 6.9765625
▁the 2.25390625
▁v 0.333740234375
owel 0.404052734375
▁to 0.409423828125
▁be 1.802734375
▁held 1.9658203125
▁for 0.18505859375
▁a 0.20458984375
▁longer 0.0501708984375
▁duration 3.04296875
. 0.03204345703125
▁Con 3.791015625
sequently 2.623046875
, 3.2901763916015625e-05
▁the 1.08984375
▁contrast 3.193359375
▁between 0.0291748046875
▁str 0.537109375
essed 0.0007123947143554688
▁and 0.013702392578125
▁un 0.0012645721435546875
str 0.0001590251922607422
essed 9.202957153320312e-05
▁v 0.144775390625
ow 0.061248779296875
els 4.887580871582031e-06
▁becomes 3.7109375
▁more 0.572265625
▁pron 0.95068359375
ounced 0.00018024444580078125
▁in 3.123046875
▁terms 2.365234375
▁of 0.00011420249938964844
▁time 7.19921875
▁duration 3.951171875
. 0.1280517578125
▁The 5.17578125
▁importance 4.22265625
▁of 0.001743316650390625
▁this 1.7783203125
▁contrast 1.3935546875
▁lies 3.1796875
▁in 0.007518768310546875
▁its 0.587890625
▁ability 0.312744140625
▁to 0.0001323223114013672
▁convey 1.126953125
▁meaning 0.52783203125
, 2.279296875
▁with 3.830078125
▁longer 1.8427734375
▁v 0.60205078125
ow 0.2227783203125
els 4.76837158203125e-07
▁indicating 2.890625
▁emphas 2.09765625
is 0.0035190582275390625
▁or 1.0615234375
▁importance 0.55126953125
. 0.492919921875
<0x0A> 0.1051025390625
However 1.740234375
, 3.886222839355469e-05
▁when 2.97265625
▁it 0.77001953125
▁comes 4.470348358154297e-05
▁to 0.00010478496551513672
▁focus 0.43896484375
, 0.384033203125
▁the 0.34521484375
▁relationship 0.42919921875
▁between 0.036834716796875
▁stress 0.0149688720703125
▁and 0.103759765625
▁v 1.02734375
owel 0.00446319580078125
▁dur 0.76220703125
ations 8.225440979003906e-05
▁becomes 1.3154296875
▁more 0.268310546875
▁nu 2.302734375
anced 9.179115295410156e-06
. 0.004138946533203125
▁Both 10.3359375
▁foc 5.87109375
al 0.99267578125
▁and 0.52783203125
▁non 0.31982421875
- 0.0645751953125
f 0.002185821533203125
ocal 0.0008392333984375
▁words 2.19140625
▁may 2.791015625
▁exhib 3.76953125
it 1.1205673217773438e-05
▁stress 1.4794921875
▁in 3.37109375
▁a 1.1943359375
▁sentence 0.1661376953125
, 0.220458984375
▁but 1.1875
▁the 0.681640625
▁duration 2.216796875
▁of 0.0196990966796875
▁their 2.6015625
▁v 0.6259765625
ow 0.05535888671875
els 1.9073486328125e-06
▁can 2.55859375
▁differ 1.501953125
▁based 3.115234375
▁on 0.0001823902130126953
▁their 1.6435546875
▁role 3.333984375
▁in 0.221435546875
▁con 3.814453125
ve 0.0002732276916503906
ying 2.9802322387695312e-06
▁focus 2.201171875
. 0.042999267578125
▁F 1.9658203125
ocal 0.09967041015625
▁words 0.1026611328125
, 1.96875
▁which 1.095703125
▁carry 2.89453125
▁new 9.84375
▁or 1.9462890625
▁emphas 4.8203125
ized 0.009246826171875
▁information 0.09185791015625
, 0.148681640625
▁generally 5.75
▁have 0.58203125
▁longer 0.65625
▁v 0.0889892578125
owel 0.82666015625
▁dur 0.050811767578125
ations 7.62939453125e-06
. 2.52734375
▁This 1.30078125
▁el 8.7734375
ong 0.189208984375
ation 0.10430908203125
▁a 4.32421875
ids 0.0197906494140625
▁in 0.039337158203125
▁drawing 2.36328125
▁attention 0.17431640625
▁to 0.033416748046875
▁the 0.30908203125
▁focused 1.3779296875
▁word 0.14404296875
, 0.55078125
▁ens 3.375
uring 1.6450881958007812e-05
▁the 4.9453125
▁listener 0.3466796875
▁compreh 2.65625
ends 0.0007963180541992188
▁its 1.166015625
▁significance 0.9033203125
. 0.114990234375
▁In 2.380859375
▁contrast 0.0560302734375
, 0.0006613731384277344
▁non 0.05718994140625
- 0.00047016143798828125
f 0.0007395744323730469
ocal 0.0027446746826171875
▁words 0.00902557373046875
▁that 3.41015625
▁are 1.861328125
▁less 2.224609375
▁important 0.62451171875
▁for 3.916015625
▁con 1.2119140625
ve 0.0002129077911376953
ying 1.1682510375976562e-05
▁new 4.23828125
▁information 0.313720703125
▁tend 1.98828125
▁to 0.00273895263671875
▁have 0.10858154296875
▁shorter 0.01424407958984375
▁v 0.025482177734375
owel 0.018218994140625
▁dur 0.010528564453125
ations 0.0003924369812011719
. 0.2958984375
<0x0A> 0.70556640625
Seg 2.880859375
ment 0.00036716461181640625
al 0.0018100738525390625
▁contrast 0.006591796875
▁also 0.488037109375
▁plays 0.1524658203125
▁a 0.05718994140625
▁role 0.78466796875
▁in 0.00594329833984375
▁v 2.4609375
owel 0.0013904571533203125
▁dur 0.27783203125
ations 0.00013506412506103516
▁in 1.875
▁relation 1.806640625
▁to 0.00037360191345214844
▁focus 0.194580078125
. 0.08331298828125
▁When 1.21484375
▁a 0.5302734375
▁word 0.7890625
▁receives 2.931640625
▁focus 1.6689453125
, 0.0880126953125
▁there 4.3984375
▁is 0.386474609375
▁a 1.0986328125
▁desire 7.66796875
▁to 0.1754150390625
▁differenti 2.07421875
ate 4.649162292480469e-06
▁its 4.04296875
▁v 0.900390625
owel 0.313720703125
▁duration 2.216796875
▁from 0.0142059326171875
▁the 1.669921875
▁surrounding 0.70263671875
▁words 0.96142578125
. 0.284423828125
▁This 0.2293701171875
▁different 2.92578125
iation 0.00011038780212402344
▁can 1.56640625
▁be 0.53125
▁achieved 0.079345703125
▁by 1.8642578125
▁reducing 4.12890625
▁the 0.2421875
▁length 2.4140625
▁of 0.0253143310546875
▁the 0.458740234375
▁non 2.177734375
- 0.000911712646484375
f 0.041656494140625
ocal 0.0151214599609375
▁v 0.52783203125
ow 0.3232421875
els 7.152557373046875e-07
, 0.9658203125
▁further 5.7265625
▁contrast 5.53125
ing 0.0007610321044921875
▁them 2.44140625
▁with 0.205322265625
▁the 0.0221405029296875
▁longer 2.57421875
▁v 1.056640625
owel 0.69384765625
▁dur 3.251953125
ations 1.3709068298339844e-05
▁of 0.12890625
▁the 0.1441650390625
▁foc 0.87158203125
al 0.0003342628479003906
▁word 0.5732421875
. 0.0125732421875
▁Thus 4.74609375
, 0.00034046173095703125
▁by 4.16796875
▁considering 3.0
▁the 0.951171875
▁inter 2.037109375
play 0.1580810546875
▁between 0.34814453125
▁stress 0.093994140625
, 0.00876617431640625
▁focus 0.004268646240234375
, 0.014617919921875
▁and 0.0031566619873046875
▁segment 0.0032958984375
al 0.0004973411560058594
▁contrast 0.001575469970703125
, 0.239990234375
▁we 0.449951171875
▁can 0.119873046875
▁better 0.6748046875
▁understand 0.0133514404296875
▁how 0.8134765625
▁v 0.475830078125
owel 0.061187744140625
▁dur 0.054046630859375
ations 3.731250762939453e-05
▁are 0.52490234375
▁influenced 0.1734619140625
▁in 0.51220703125
▁different 3.703125
▁lingu 0.97119140625
istic 0.0002512931823730469
▁context 0.142578125
s 7.152557373046875e-05
. 0.009674072265625
<0x0A> 0.0279693603515625
Con 0.80615234375
clusion 0.0239715576171875
<0x0A> 0.0286712646484375
The 2.94140625
▁relationship 0.51806640625
▁between 0.0021114349365234375
▁stress 0.01641845703125
, 0.0029201507568359375
▁focus 0.0013303756713867188
, 0.00469970703125
▁and 0.001888275146484375
▁segment 0.0028247833251953125
al 0.00023674964904785156
▁contrast 0.0008182525634765625
▁in 0.1668701171875
▁v 0.0223846435546875
owel 0.0011701583862304688
▁dur 0.0144805908203125
ations 5.137920379638672e-05
▁is 0.20458984375
▁a 1.095703125
▁complex 0.96435546875
▁yet 2.189453125
▁intr 2.837890625
igu 0.0892333984375
ing 0.0004477500915527344
▁topic 1.71875
▁within 3.779296875
▁the 0.62451171875
▁real 2.080078125
m 0.0036563873291015625
▁of 0.0003285408020019531
▁lingu 0.026702880859375
istics 0.01513671875
. 0.0081939697265625
▁Through 4.40625
▁studies 3.55078125
▁and 0.8076171875
▁research 1.6552734375
, 0.06103515625
▁it 2.201171875
▁has 0.734375
▁become 1.1845703125
▁apparent 1.8486328125
▁that 0.01084136962890625
▁str 3.96875
essed 0.0019931793212890625
▁v 0.313232421875
ow 0.00815582275390625
els 9.5367431640625e-07
▁tend 0.219970703125
▁to 0.0002455711364746094
▁be 0.07696533203125
▁longer 0.0458984375
, 2.357421875
▁a 6.3828125
iding 1.919921875
▁in 0.0277099609375
▁con 1.1533203125
ve 0.0001569986343383789
ying 4.649162292480469e-06
▁emphas 1.0439453125
is 0.00595855712890625
▁and 0.8349609375
▁importance 0.6201171875
. 0.2509765625
▁When 3.59765625
▁it 0.6220703125
▁comes 0.0001119375228881836
▁to 0.00020313262939453125
▁focus 0.11883544921875
, 0.0166778564453125
▁the 0.9375
▁v 2.884765625
owel 0.05755615234375
▁dur 0.56005859375
ations 6.496906280517578e-05
▁of 0.049835205078125
▁foc 0.42529296875
al 0.00029921531677246094
▁and 0.72998046875
▁non 0.0005717277526855469
- 0.000392913818359375
f 7.104873657226562e-05
ocal 0.00165557861328125
▁words 0.0011053085327148438
▁differ 1.578125
, 0.6396484375
▁with 0.1787109375
▁foc 1.49609375
al 0.0004749298095703125
▁words 0.036346435546875
▁exhib 1.6806640625
iting 3.421306610107422e-05
▁longer 0.0880126953125
▁dur 0.91796875
ations 1.2278556823730469e-05
▁to 0.77978515625
▁draw 0.53759765625
▁attention 0.0198211669921875
. 3.009765625
▁Seg 1.0537109375
ment 3.159046173095703e-05
al 0.0004086494445800781
▁contrast 0.0016851425170898438
▁further 4.1953125
▁highlight 5.40625
s 0.0002684593200683594
▁the 1.3408203125
▁distinction 1.701171875
▁between 0.06024169921875
▁these 1.8525390625
▁words 1.7265625
, 0.316162109375
▁ens 3.6328125
uring 1.728534698486328e-05
▁effective 2.345703125
▁communication 0.0206451416015625
▁and 1.60546875
▁con 2.87890625
ve 0.0021114349365234375
ying 9.012222290039062e-05
▁specific 5.6171875
▁mean 0.9794921875
ings 6.401538848876953e-05
. 0.046356201171875
▁Exp 10.90625
and 0.114013671875
ing 0.048828125
▁our 0.2008056640625
▁understanding 0.50927734375
▁of 0.01125335693359375
▁this 0.8916015625
▁relationship 0.47021484375
▁enh 5.81640625
ances 7.319450378417969e-05
▁our 0.037811279296875
▁compreh 2.015625
ension 0.0016231536865234375
▁of 0.030731201171875
▁language 0.873046875
▁structure 4.4765625
▁and 0.1881103515625
▁the 3.314453125
▁role 2.384765625
▁of 1.6640625
▁stress 1.3193359375
▁and 3.62890625
▁focus 0.103515625
▁in 0.01898193359375
▁communication 2.66015625
. 0.018585205078125
